	Making a ZKP of formal prover showing that a closed-source impl is equivalent to a given spec is now not far outside realm of possibility...	VitalikButerin	65	31	1477741344	792330743573733376	https://twitter.com/VitalikButerin/status/792330743573733376			
	Hard forks can totally be decentralized.	VitalikButerin	5	2	1477741019	792329381284749312	https://twitter.com/VitalikButerin/status/792329381284749312			
	"""Internal market""? Reminds me of proposals Ludwig von Mises was debunking when discussing the non-viability of socialism..."	VitalikButerin	5	1	1477740894	792328856573054976	https://twitter.com/VitalikButerin/status/792328856573054976			
	Reminder: the USD-denominated price of a Shadowstats subscription has not increased in 10 years. http://franklycurious.com/media/1/20140719-shadowstatsprice.jpg …	VitalikButerin	16	9	1477740756	792328275473293313	https://twitter.com/VitalikButerin/status/792328275473293313			
ethereum 	If market cap = price * _eventual_ supply, then ethereum and dogecoin are both at infinity	VitalikButerin	12	5	1477740634	792327766725107712	https://twitter.com/VitalikButerin/status/792327766725107712			
	Also, in a low-supervision context, equilibrium w/minimum wage is for some workers to voluntarily underreport their hours	VitalikButerin	3	1	1477740451	792326997078777857	https://twitter.com/VitalikButerin/status/792326997078777857			
	And it's not even about doing anything illegal; in a decentralized context there's just no one who can be declared an employer	VitalikButerin	7	2	1477740341	792326535147495424	https://twitter.com/VitalikButerin/status/792326535147495424			
	Meanwhile, if you had put that dollar into a bank account or even treasury bills...	VitalikButerin	1	2	1477726948	792270359802228736	https://twitter.com/VitalikButerin/status/792270359802228736			
	The question was asking about needing to fork to resolve dos attacks. HF2 is not about resolving dos attacks.	VitalikButerin	3	3	1477726918	792270233545211904	https://twitter.com/VitalikButerin/status/792270233545211904			
	Thank you for your support Mark. # BlockchainRevolution.	dtapscott	2	1	1477762407	792419087297159172	https://twitter.com/dtapscott/status/792419087297159172		#	
	done.	dtapscott	1	0	1477749944	792366813568987136	https://twitter.com/dtapscott/status/792366813568987136			
bitcoin 	Thank you for sharing @ MercadoBitcoin. The Portuguese version of # BlockchainRevolution is coming out in the Spring of 2017!https://twitter.com/MercadoBitcoin/status/792162985502502912 …	dtapscott	11	5	1477744950	792345867332321280	https://twitter.com/dtapscott/status/792345867332321280		#	@
	Very cool. thanks!	dtapscott	3	1	1477713706	792214818698788864	https://twitter.com/dtapscott/status/792214818698788864			
	Ha. Very funny. Michael I want to interview you for my project on the New Social Contract. Can you email me?	dtapscott	1	0	1477713664	792214646329597952	https://twitter.com/dtapscott/status/792214646329597952			
	# ICYMI: Looking for the next tech unicorn? Here's 4 you don't want to miss. # Blockchain @ MarketWatch @ 500Startupshttp://klou.tt/fnu206wer6rc	dtapscott	14	14	1477695605	792138897861939201	https://twitter.com/dtapscott/status/792138897861939201		# #	@ @
	Clinton 2.0. https://youtu.be/RwQf9H2z8eo http://fb.me/4k1b66zFF	maxkeiser	16	16	1477774289	792468923740463108	https://twitter.com/maxkeiser/status/792468923740463108			
	Market will perceive this negatively. Expect £ weakness.https://twitter.com/renegade_inc/status/792421224907497472 …	maxkeiser	22	26	1477773024	792463617304227842	https://twitter.com/maxkeiser/status/792463617304227842			
	Great. Totally agree. Well done. https://twitter.com/annpettifor/status/792417583068741632 …	maxkeiser	33	19	1477762271	792418516737597440	https://twitter.com/maxkeiser/status/792418516737597440			
	. @ cafearomatic OMG. Coffee that is roasted on premises is frickin awesome.pic.twitter.com/l3AX6Ltmuh	maxkeiser	32	5	1477757908	792400217287032836	https://twitter.com/maxkeiser/status/792400217287032836			@
	Trump is funkier than Hillary. James Brown would have voted Trump.https://twitter.com/pickmand07/status/791921469693366273 …	maxkeiser	29	14	1477751726	792374288888303617	https://twitter.com/maxkeiser/status/792374288888303617			
	Theresa May's # Brexit plan revealed.https://twitter.com/londonist/status/792367699070447616 …	maxkeiser	8	7	1477750468	792369011283615744	https://twitter.com/maxkeiser/status/792369011283615744		#	
	Encountering Eric Holder. https://youtu.be/vzZetyg5eww http://fb.me/5E8wdwj2V	maxkeiser	13	10	1477748406	792360362033242112	https://twitter.com/maxkeiser/status/792360362033242112			
	To speak her views on TV without censorship Katie Hopkins has to travel all the way to America.	maxkeiser	30	15	1477747639	792357147866783744	https://twitter.com/maxkeiser/status/792357147866783744			
	If Hillary indicted then people who cast vote already need to be able to rescind. Maybe just postpone election.	maxkeiser	39	35	1477747226	792355412133736448	https://twitter.com/maxkeiser/status/792355412133736448			
	Brits won't notice iPhone Brexit price rise. Too busy working the fields for £5 a day now those pesky immigrants have left.	maxkeiser	72	51	1477746864	792353894626168832	https://twitter.com/maxkeiser/status/792353894626168832			
	. @ DanielJHannan When rates are going down, it's principled decision making. When rates are going up it's unacceptable politicalisation.	maxkeiser	50	13	1477743297	792338932818075648	https://twitter.com/maxkeiser/status/792338932818075648			@
	Bribe?https://twitter.com/ft/status/792143936311656448 …	maxkeiser	34	30	1477697621	792147354358919168	https://twitter.com/maxkeiser/status/792147354358919168			
	Je ne dirais pas ça; les français sous-estiment l’ampleur du Brixit d’une part et le potentiel d’attraction de Paris d’autre part	babgi	0	1	1477740422	792326875234402305	https://twitter.com/babgi/status/792326875234402305			
	Une impressionnante flopée de statistiques économiques sur Paris by @ jlmissikahttp://www.lefigaro.fr/vox/politique/2016/10/28/31001-20161028ARTFIG00119-desole-m-baverez-mais-fluctuat-nec-mergitur.php …	babgi	24	15	1477728868	792278414027816960	https://twitter.com/babgi/status/792278414027816960			@
	Pour une fois une analyse pertinente sur le potentiel de l'intelligence artificielle http://www.lesechos.fr/idees-debats/editos-analyses/0211389204103-ne-manquons-pas-le-virage-de-lintelligence-artificielle-2038483.php … # AI @ GautierBongras	babgi	50	55	1477694365	792133698917367808	https://twitter.com/babgi/status/792133698917367808		#	@
	I'm US based - can't use Bitmex!	VinnyLingham	3	0	1477770721	792453957318696961	https://twitter.com/VinnyLingham/status/792453957318696961			
	Ok, so assuming I will have 100 Zcoins sometime in the next 12 months, who would pay me today's price for them and I'll deliver them later?	VinnyLingham	34	9	1477770577	792453355943579649	https://twitter.com/VinnyLingham/status/792453355943579649			
	Getting ready for Halloween in San Francisco tonight! https://www.instagram.com/p/BMKEB_bh1sG/	VinnyLingham	3	0	1477766438	792435994259709952	https://twitter.com/VinnyLingham/status/792435994259709952			
	but otherwise, a great summary, thanks! 3/3 is a better call ;)	VinnyLingham	2	0	1477758664	792403386406535172	https://twitter.com/VinnyLingham/status/792403386406535172			
	missed the fact that I said it would consolidate in a tight range of $550-$650 post halving, versus the Market view	VinnyLingham	3	0	1477758641	792403293045526528	https://twitter.com/VinnyLingham/status/792403293045526528			
	If you like both wine and chocolate, then this stuff is incredible! I just stocked up! https://www.instagram.com/p/BMIdAdsh3sT/	VinnyLingham	12	0	1477712424	792209444335517696	https://twitter.com/VinnyLingham/status/792209444335517696			
	exactly!!! Nail on the head!	VinnyLingham	1	0	1477697703	792147699776663554	https://twitter.com/VinnyLingham/status/792147699776663554			
bitcoin 	sigh...https://vinnylingham.com/deconstructing-the-bitcoin-market-cap-ce52b0d87035 …	VinnyLingham	5	0	1477697677	792147589072203776	https://twitter.com/VinnyLingham/status/792147589072203776			
	Making sure my copyright stays intact:)https://twitter.com/ActionB0SS/status/792368571061968896 …	officialmcafee	38	5	1477753797	792382975539290112	https://twitter.com/officialmcafee/status/792382975539290112			
	"""Politics is the constant reorganization of the nothing new"". - John McAfee"	officialmcafee	107	43	1477750256	792368121155842048	https://twitter.com/officialmcafee/status/792368121155842048			
	"""The sun shone down, having no alternative, on an uncomprehending and incomprehensible world."" - The first self aware voting machine."	officialmcafee	59	22	1477748876	792362335813926912	https://twitter.com/officialmcafee/status/792362335813926912			
	@ sammaule it's about both	BrettKing	1	0	1477746242	792351287350288384	https://twitter.com/BrettKing/status/792351287350288384			@
	It won't feel like hard work to you but will look like work to everyone else. https://twitter.com/stogachess/status/792243371871866881 …	naval	761	273	1477722950	792253593998888960	https://twitter.com/naval/status/792253593998888960			
	Be the best in the world at what you do. Keep redefining what you do until this is true.	naval	777	304	1477719774	792240270548963328	https://twitter.com/naval/status/792240270548963328			
	I think it is a good thing, on many different levels. We can argue details, but # segwit opens the door for a lot of important stuff	aantonop	46	27	1477766746	792437286579343360	https://twitter.com/aantonop/status/792437286579343360		#	
bitcoin 	Upgraded all my bitcoin nodes to 0.13.1, ready for segwit activation	aantonop	269	123	1477766619	792436751901921280	https://twitter.com/aantonop/status/792436751901921280			
	Do some research and you will then have to revise your opinion of the credibility of the person who posted that.	aantonop	2	0	1477747133	792355023040745472	https://twitter.com/aantonop/status/792355023040745472			
	"I think you've misunderstood the genesis ceremony. There is no master key and it's not ""held"" by ""members of its company"""	aantonop	0	0	1477746959	792354293659602945	https://twitter.com/aantonop/status/792354293659602945			
bitcoin 	"""The beginning of the 4th revolution of money... I don't have a bank account in my pocket - I have a bank."" # Bitcoinhttps://youtu.be/ieP8kxaklUk?t=10m23s …"	aantonop	138	87	1477746389	792351904936386560	https://twitter.com/aantonop/status/792351904936386560		#	
	In two weeks or less	aantonop	1	0	1477742194	792334306844745729	https://twitter.com/aantonop/status/792334306844745729			
	Arrived in Buenos Aires!	aantonop	22	2	1477737510	792314660405989376	https://twitter.com/aantonop/status/792314660405989376			
	"Yeah! Let's kill ""trust"" next"	aantonop	1	0	1477737508	792314654366109696	https://twitter.com/aantonop/status/792314654366109696			
	next time!	aantonop	1	0	1477692946	792127744729423872	https://twitter.com/aantonop/status/792127744729423872			
	I'll be here up to two hours	aantonop	0	0	1477692677	792126616386301954	https://twitter.com/aantonop/status/792126616386301954			
	yup, just arrived	aantonop	0	0	1477692656	792126529614610432	https://twitter.com/aantonop/status/792126529614610432			
	"""a couple of hours"" =~ 20 km"	aantonop	0	0	1477692523	792125973751795712	https://twitter.com/aantonop/status/792125973751795712			
	traffic is crazy	aantonop	0	0	1477692419	792125537326096388	https://twitter.com/aantonop/status/792125537326096388			
	I can only make it as far as metro mall for a couple of hours. Too risky to try	aantonop	0	0	1477692410	792125496544886784	https://twitter.com/aantonop/status/792125496544886784			
bitcoin 	ShapeShift Adds Zcash Support As ZEC Markets Go Wildhttps://news.bitcoin.com/shapeshift-zcash-zec-markets-go-wild/?utm_source=twitter&utm_medium=social&utm_campaign=SocialWarfare …	ErikVoorhees	22	8	1477761197	792414010788290561	https://twitter.com/ErikVoorhees/status/792414010788290561			
bitcoin 	This is good: “A Letter to the Blockchain Community” @ bierlingm https://medium.com/the-exofiles/a-letter-to-the-blockchain-community-8217fd0a4757 … # liberty # bitcoin	ErikVoorhees	38	32	1477716089	792224816757510144	https://twitter.com/ErikVoorhees/status/792224816757510144		# #	@
	Its cool. Huge speculative bubble right now, but the underlying tech is good. Long term bullish.	ErikVoorhees	2	0	1477714651	792218782236147712	https://twitter.com/ErikVoorhees/status/792218782236147712			
	Instead of a premine, the creators decided to take coins over time (over four years), and sold some of that to investors	ErikVoorhees	1	0	1477714540	792218318853722112	https://twitter.com/ErikVoorhees/status/792218318853722112			
bitcoin 	Hello $700, my old friend http://bitcoinity.org/markets/bitfinex/USD … # bitcoin	ErikVoorhees	94	31	1477708242	792191901017317376	https://twitter.com/ErikVoorhees/status/792191901017317376		#	
	Monero is good too. I'm happy multiple projects are working on this important feature.	ErikVoorhees	5	1	1477700082	792157678063595520	https://twitter.com/ErikVoorhees/status/792157678063595520			
	It would be very stupid to try to mix through ShapeShift. We publish every transaction on the homepage and API	ErikVoorhees	0	0	1477700038	792157490905358336	https://twitter.com/ErikVoorhees/status/792157490905358336			
	For those who care about financial privacy, yes.	ErikVoorhees	2	0	1477698726	792151991837347841	https://twitter.com/ErikVoorhees/status/792151991837347841			
bitcoin 	So everything other than Bitcoin is snake oil then? Is that your position?	ErikVoorhees	0	0	1477697781	792148027020484609	https://twitter.com/ErikVoorhees/status/792148027020484609			
bitcoin 	The most popular asset we sell is Bitcoin. Is that snake oil? Or just the assets you don't like are snake oil?	ErikVoorhees	1	0	1477697535	792146993241989120	https://twitter.com/ErikVoorhees/status/792146993241989120			
	Congrats to @ zooko and @ zcashco team on a smooth launch of Zcash. Despite the hype and price bubble, it's a blessing to humanity. # privacy	ErikVoorhees	84	23	1477697400	792146426721480704	https://twitter.com/ErikVoorhees/status/792146426721480704		#	@ @
	"I find it interesting that you never mention we buy ""snake oil""... perhaps because that would reveal your speciousness?"	ErikVoorhees	0	0	1477697200	792145590490509313	https://twitter.com/ErikVoorhees/status/792145590490509313			
	. @ jimmysong And then I started realizing some of these assets are not mutually exclusive, but in fact complimentary.	ErikVoorhees	4	0	1477696779	792143824344580096	https://twitter.com/ErikVoorhees/status/792143824344580096			@
	The market for privacy has been unleashed. A huge speculative bubble, to be sure, but a great day for the rights of humans.https://twitter.com/el33th4xor/status/792098627133042688 …	ErikVoorhees	47	21	1477695869	792140006139629569	https://twitter.com/ErikVoorhees/status/792140006139629569			
	"""I'll just play one more turn..."""	TuurDemeester	7	0	1477776472	792478080639967232	https://twitter.com/TuurDemeester/status/792478080639967232			
ethereum 	https://twitter.com/ethereumproject/status/792046452046528512 …	TuurDemeester	9	2	1477774174	792468439591886848	https://twitter.com/TuurDemeester/status/792468439591886848			
	Thanks Mike!	TuurDemeester	0	0	1477773409	792465234770354176	https://twitter.com/TuurDemeester/status/792465234770354176			
	Time will tell...	TuurDemeester	0	0	1477760824	792412447399223296	https://twitter.com/TuurDemeester/status/792412447399223296			
	Aw, thanks Ricky Bobby! Every now and then someone tips me and I get a kick out of it every time :-)	TuurDemeester	1	0	1477758396	792402265801916416	https://twitter.com/TuurDemeester/status/792402265801916416			
	We'll see. I think this rally isn't over.	TuurDemeester	1	0	1477757919	792400262526865412	https://twitter.com/TuurDemeester/status/792400262526865412			
bitcoin ethereum 	Note that today's ETH price action is no evidence that its fundamentals are flawed—also BTC was once overbought.https://medium.com/@tuurdemeester/why-im-short-ethereum-and-long-bitcoin-aee5b1c198fd …	TuurDemeester	13	3	1477757867	792400043735191553	https://twitter.com/TuurDemeester/status/792400043735191553			@tuurdemeester
	For mining pool info, there is but one authoritative source: @ oocBlog's http://organofcorti.blogspot.com .	TuurDemeester	4	1	1477757558	792398748282417152	https://twitter.com/TuurDemeester/status/792398748282417152			@
	Thanks! And I'm sorry if your portfolio suffered.	TuurDemeester	0	0	1477757213	792397302392586241	https://twitter.com/TuurDemeester/status/792397302392586241			
bitcoin 	"Bitcoin is digital gold. Imo the main adoption driver is falsification of a million ""it's not secure because x""-theories.https://twitter.com/vakeraj/status/792124336144515072 …"	TuurDemeester	15	3	1477756371	792393772315312128	https://twitter.com/TuurDemeester/status/792393772315312128			
	What's the source?	TuurDemeester	0	0	1477755982	792392139279859712	https://twitter.com/TuurDemeester/status/792392139279859712			
	You're welcome!	TuurDemeester	1	0	1477755883	792391723683045377	https://twitter.com/TuurDemeester/status/792391723683045377			
ethereum 	# Ethereum today.pic.twitter.com/8GcJv7RtYv	TuurDemeester	4	11	1477755670	792390828954095616	https://twitter.com/TuurDemeester/status/792390828954095616		#	
bitcoin 	Here are the bitcoin subreddits I'm subscribed to. I'd say r/bitcoinmarkets and r/bitcoin_devlist are the most interesting.pic.twitter.com/frF5MkPjQw	TuurDemeester	4	0	1477755632	792390672355618816	https://twitter.com/TuurDemeester/status/792390672355618816			
	Yes.	TuurDemeester	5	0	1477755264	792389128985972736	https://twitter.com/TuurDemeester/status/792389128985972736			
ethereum 	No, just to show what the sentiment is on a forum for ethereum traders	TuurDemeester	0	0	1477755226	792388966087532544	https://twitter.com/TuurDemeester/status/792388966087532544			
	for what purpose, trading?	TuurDemeester	0	0	1477755197	792388844574404609	https://twitter.com/TuurDemeester/status/792388844574404609			
bitcoin 	# Bitcoin at $720 now.pic.twitter.com/dfXqG6z8XQ	TuurDemeester	19	19	1477755123	792388536456585216	https://twitter.com/TuurDemeester/status/792388536456585216		#	
	I've been looking at the April 25th bottom as support, so 0.015. Either way indeed critical times!	TuurDemeester	3	0	1477754858	792387425561632768	https://twitter.com/TuurDemeester/status/792387425561632768			
ethereum 	No plans in that direction - I'm afraid the Ethereum protocol is fundamentally flawed.	TuurDemeester	4	0	1477754554	792386149969002496	https://twitter.com/TuurDemeester/status/792386149969002496			
bitcoin ethereum 	# Ethereum vs # Bitcoin sentiment: comment from kb1985 on r/ethtrader. https://www.reddit.com/r/ethtrader/comments/5a0j58/outlook_next_48_hours/d9cq9sc/ …pic.twitter.com/krpMW50cSQ	TuurDemeester	30	23	1477754509	792385959400706048	https://twitter.com/TuurDemeester/status/792385959400706048		# #	
bitcoin 	Bitcoin Core full moon (Segwit, Sidechains, Lightning, ...) is causing high tide for BTC price and low tide for altcoins.	TuurDemeester	1	0	1477754229	792384785368879104	https://twitter.com/TuurDemeester/status/792384785368879104			
	Source:https://www.reddit.com/r/ethtrader/comments/59ze25/daily_discussion_29oct2016/ …	TuurDemeester	1	0	1477753867	792383267739725824	https://twitter.com/TuurDemeester/status/792383267739725824			
	r/ETHtrader comments: My 19th nervous breakdown Clear lack of communication New kid on the block - Zec Amazing time to buy	TuurDemeester	9	2	1477753816	792383054455209984	https://twitter.com/TuurDemeester/status/792383054455209984			
ethereum 	Black Monday coming? # Ethereum dropped 11% today, now below 0.015 BTC support level.pic.twitter.com/INkxUDW4fq	TuurDemeester	47	34	1477752877	792379115684917249	https://twitter.com/TuurDemeester/status/792379115684917249		#	
	I think youre right. I'm removing my tweet now.	TuurDemeester	2	0	1477752535	792377680339603456	https://twitter.com/TuurDemeester/status/792377680339603456			
	Why didn't it happen then?	TuurDemeester	0	0	1477752266	792376553594388480	https://twitter.com/TuurDemeester/status/792376553594388480			
	oh wow	TuurDemeester	1	1	1477750795	792370381537423361	https://twitter.com/TuurDemeester/status/792370381537423361			
bitcoin 	Communism can't calculate because money & free trade are abolished. Bitcoin *is* money & free trade. https://en.m.wikipedia.org/wiki/Socialist_calculation_debate …	TuurDemeester	9	0	1477749795	792366189095682049	https://twitter.com/TuurDemeester/status/792366189095682049			
	Sure: https://m.reddit.com/r/btc/comments/57hd14/core_reaction_to_viabtc_this_week/d8scokm?sort=top&utm_source=mweb_redirect&compact=true …	TuurDemeester	0	0	1477746890	792354002830712832	https://twitter.com/TuurDemeester/status/792354002830712832			
ethereum 	I think Ethereum is pushing Ethereum down.	TuurDemeester	4	0	1477746625	792352893621837826	https://twitter.com/TuurDemeester/status/792352893621837826			
	all of it... Excitement, shock, pain, awe, even some underwhelm.	TuurDemeester	1	0	1477746545	792352557649661952	https://twitter.com/TuurDemeester/status/792352557649661952			
	most def!	TuurDemeester	0	0	1477718854	792236414138191872	https://twitter.com/TuurDemeester/status/792236414138191872			
	https://blockstream.com/sidechains.pdf http://www.coindesk.com/sidechains-white-paper-ecosystem-reboot/ …	TuurDemeester	1	0	1477703682	792172778858348546	https://twitter.com/TuurDemeester/status/792172778858348546			
bitcoin 	Indeed: if Bitcoin doesn't create an internal market via sidechains, it will keep being confronted with large cap altcoin competitors. https://twitter.com/desantis/status/792170908274360321 …	TuurDemeester	27	21	1477703462	792171855356583936	https://twitter.com/TuurDemeester/status/792171855356583936			
	My feelings about the # Zcash launch.pic.twitter.com/KP2sySopL6	TuurDemeester	48	16	1477703387	792171537658961920	https://twitter.com/TuurDemeester/status/792171537658961920		#	
	Not to you I don't	TuurDemeester	1	0	1477698737	792152035701305344	https://twitter.com/TuurDemeester/status/792152035701305344			
	Could be earlier even, fiat volatility is rising.https://twitter.com/dangermouse117/status/792056676476084224 …	TuurDemeester	12	6	1477697787	792148051561320448	https://twitter.com/TuurDemeester/status/792148051561320448			
	Ha, you're right, it's been dropping in btc terms.	TuurDemeester	0	0	1477697507	792146876422168576	https://twitter.com/TuurDemeester/status/792146876422168576			
ethereum 	I second this. Ethereum has a larger throughput than BTC. Don't think it's buying them more users.	TuurDemeester	13	0	1477697465	792146701721022464	https://twitter.com/TuurDemeester/status/792146701721022464			
	So whether their supply will be multiplied tomorrow shouldn't influence the value estimate of Rembrandt paintings today?	TuurDemeester	0	0	1477697385	792146365279117312	https://twitter.com/TuurDemeester/status/792146365279117312			
	30 sec instead of 10 mins?	TuurDemeester	0	0	1477697202	792145598140911616	https://twitter.com/TuurDemeester/status/792145598140911616			
	DoD Petraeus/Clinton # HillarysEmail will also involve Obama @ alysenwonderlnd & our # Benghazi brothers. @ BarbMuenchenhttps://twitter.com/networksmanager/status/792456167624695808 … – bei The White House	NetworksManager	161	209	1477774750	792470859348897792	https://twitter.com/NetworksManager/status/792470859348897792		# #	@ @
	Mon House likely knew more # HillarysEmail Tues House order DoD give Clinton-Petraeus emails Fri FBI reopens case # DChttps://twitter.com/NetworksManager/status/792456167624695808 …	NetworksManager	119	159	1477773451	792465408259420160	https://twitter.com/NetworksManager/status/792465408259420160		# #	
	LOOKs like it declassified this morning now Ashton Carter n mix wonder how many going down 4 # HillarysEmail # DoD # DChttps://twitter.com/networksmanager/status/792456167624695808 … – bei The White House	NetworksManager	382	518	1477771724	792458165916987392	https://twitter.com/NetworksManager/status/792458165916987392		# # #	
	House Oversight Orders DoD Sec. Ashton Carter Hand Over Clinton E-Mails to Pertraeus. # DC https://oversight.house.gov/wp-content/uploads/2016/10/U-2016-10-25-Letter-on-Clinton-Petraeus-Emails-REDACTED.pdf …pic.twitter.com/aghRlCMbqI	NetworksManager	953	1388	1477771248	792456167624695808	https://twitter.com/NetworksManager/status/792456167624695808		#	
	# FREEAssange # FREEJulian @ wikileaks @ BluSthil @ Lrihendryhttps://twitter.com/lrihendry/status/792368640712597508 …	NetworksManager	74	84	1477759514	792406951577739264	https://twitter.com/NetworksManager/status/792406951577739264		# #	@ @ @
	FBI came to conclusion they looked like absolute fools they done horrible job,discredited agency & agents. # Wikileakshttps://www.youtube.com/watch?v=qKvLhFz8BCc …	NetworksManager	220	210	1477756842	792395746066718725	https://twitter.com/NetworksManager/status/792395746066718725		#	
	Have great respect for the @ FBI for righting this wrong the American people fully understand Clinton corruption. # DChttps://www.youtube.com/watch?v=wUALCE-ZCaI …	NetworksManager	142	190	1477749642	792365544976580610	https://twitter.com/NetworksManager/status/792365544976580610		#	@
	no	NetworksManager	2	0	1477745743	792349195009134600	https://twitter.com/NetworksManager/status/792349195009134600			
	Media aren't journalist anymore remember the bill Obama quietly signed lifting propaganda ban. # DrainTheSwamp # DCpic.twitter.com/XVt5afp6Gt	NetworksManager	371	382	1477744782	792345160625557508	https://twitter.com/NetworksManager/status/792345160625557508		# #	
	Media clowns crawling out of their skin can't believe Comey+FBI would have balls to reopen even though WE ALL READ @ wikileaks # DrainTheSwamp	NetworksManager	273	224	1477708175	792191621815230464	https://twitter.com/NetworksManager/status/792191621815230464		#	@
	Imagine what we can accomplish as 1 people,under 1 God,saluting 1 American flag STREAM @ realDonaldTrump Cedar Rapidshttps://youtu.be/A7FqNu8xmMg	NetworksManager	52	27	1477707002	792186703964405765	https://twitter.com/NetworksManager/status/792186703964405765			@
	Austria postponed their elections bc anti-islam party keeps winning. It's vs their constitution & ours but idk Obama is a criminal. @ windwens – bei The White House	NetworksManager	17	16	1477700955	792161337040310272	https://twitter.com/NetworksManager/status/792161337040310272			@
	Obama in on it.	NetworksManager	5	1	1477699772	792156376269193216	https://twitter.com/NetworksManager/status/792156376269193216			
	Obama, Bill+Hillary Clinton house of cards collapsing # WikiLeaks ‘Collusion‘ with Justice Department. # DrainTheSwamphttps://youtu.be/zQq6OPLKv2M  – bei The White House	NetworksManager	293	328	1477698697	792151867061075968	https://twitter.com/NetworksManager/status/792151867061075968		# #	
	It's probably worth noting that The National Association of Broadcasters is # JohnConyers 2nd largest campaign donor... # Detroit # MediaBiashttps://twitter.com/haydentiff/status/792402478318977024 …	haydentiff	8	4	1477768104	792442981987082241	https://twitter.com/haydentiff/status/792442981987082241		# # #	
	Thank you! @ DerekAndonian	haydentiff	2	1	1477763996	792425754067808256	https://twitter.com/haydentiff/status/792425754067808256			@
	Thank you! @ CoachKrampen_Jr	haydentiff	2	0	1477763299	792422827072905218	https://twitter.com/haydentiff/status/792422827072905218			@
	I'm not going anywhere. Win or lose, I have a lot to say and my voice is only getting stronger and more defined. @ CoachKrampen_Jr	haydentiff	14	2	1477763119	792422073641627648	https://twitter.com/haydentiff/status/792422073641627648			@
	WRONG, @ wdet. I said # JohnConyers is no longer fit to serve because his mental health has SEVERELY DETERIORATED. http://www.tiffanyhayden.co/john-conyers-is-not-fit-to-serve/ …pic.twitter.com/xvjpMAWexx	haydentiff	14	6	1477762883	792421082846334976	https://twitter.com/haydentiff/status/792421082846334976		#	@
	Contact info: Email: Tiffany@EnablePayments.org Phone: 734.629.9066 Please do not use homing pigeons, morse code, or telepathy. Thanks.	haydentiff	11	3	1477758961	792404634371588096	https://twitter.com/haydentiff/status/792404634371588096			@EnablePayments
	It's infuriating to try so hard to get media coverage and then read that I turned it down. # BS @ talgya @ reason @ MotherJones @ MCmuckraker	haydentiff	14	7	1477758611	792403166637809668	https://twitter.com/haydentiff/status/792403166637809668		#	@ @ @ @
	Anyone else notice a theme? The media is supposed to mirror public image, not mold it. Libertarians are ignored in Detroit. # MediaBias # tlotpic.twitter.com/g23zaXQzJK	haydentiff	19	7	1477758447	792402478318977024	https://twitter.com/haydentiff/status/792402478318977024		# #	
	I never received a request to be interviewed for this story. # Detroit # Oppression # Lies @ wdet @ GJNeher @ LPNationalhttp://wdet.org/posts/2016/10/28/84088-longest-serving-member-of-us-house-takes-on-reluctant-republican-in-michigans-13th-congressional-district/ …	haydentiff	10	9	1477757092	792396796383363072	https://twitter.com/haydentiff/status/792396796383363072		# # #	@ @ @
	"How does @ wdet reach out to Libertarians? Homing pigeons? ""Hayden did not respond to repeated requests to be interviewed for this story"" BShttps://twitter.com/GJNeher/status/779029170512883712 …"	haydentiff	10	9	1477756657	792394970057629696	https://twitter.com/haydentiff/status/792394970057629696			@
	How did a city in financial ruins come up with $85M to pay for an unnecessary pipeline? # FlintWaterCrisis # Detroithttps://medium.com/@haydentiff/is-this-corporatocracy-147c2b30a2ed#.pynvnfauf …	haydentiff	6	4	1477752881	792379130599841797	https://twitter.com/haydentiff/status/792379130599841797		# # #	@haydentiff
	Great rally! Tried to make it scandalous, but no such luck. Good people are good people. # Detroit # GaryJohnson # Gentleman # Election2016pic.twitter.com/POnOdBNEjE	haydentiff	81	27	1477703947	792173886947241984	https://twitter.com/haydentiff/status/792173886947241984		# # # #	
	Thank you! @ CoachKrampen_Jr	haydentiff	1	0	1477703250	792170963500568576	https://twitter.com/haydentiff/status/792170963500568576			@
	Legalize it. @BTCmacroeconpic.twitter.com/d7eh0EYXn4	haydentiff	13	8	1477703222	792170849180590080	https://twitter.com/haydentiff/status/792170849180590080			@BTCmacroeconpic
	Not as depressing as people who give up without bothering to try. @leroydonahue @ LPNational	haydentiff	12	1	1477703035	792170064183070720	https://twitter.com/haydentiff/status/792170064183070720			@leroydonahue @
	I'm going to look into this more, thank you. @AndrewVots88	haydentiff	3	0	1477701593	792164013605912577	https://twitter.com/haydentiff/status/792164013605912577			@AndrewVots88
	Lisa is great! @ evil_devil_97 @ lisaforliberty	haydentiff	1	0	1477701366	792163062086115328	https://twitter.com/haydentiff/status/792163062086115328			@ @
	I can go to the doctor but I DON'T WANT TO so I don't. @ SuzieQt154320 @ guylepage3 @ nurxapp	haydentiff	3	0	1477701106	792161973886672896	https://twitter.com/haydentiff/status/792161973886672896			@ @ @
	Thank you! @ LPNational	haydentiff	5	0	1477694715	792135166063943680	https://twitter.com/haydentiff/status/792135166063943680			@
	hopefully for good reason! :D	stacyherbert	0	0	1477775778	792475169856061440	https://twitter.com/stacyherbert/status/792475169856061440			
	that's what Max said when he saw the photo; that's why I like it so much. ;)	stacyherbert	2	0	1477775760	792475093767249920	https://twitter.com/stacyherbert/status/792475093767249920			
	Max and I at the annual Pittsboro fair todaypic.twitter.com/kBdqpdCvfV	stacyherbert	66	9	1477775343	792473343970701321	https://twitter.com/stacyherbert/status/792473343970701321			
	I actually have no idea. So many layers of disturbing.	stacyherbert	0	0	1477774638	792470387082817540	https://twitter.com/stacyherbert/status/792470387082817540			
	This is your brain. This is your brain after you join a political party.pic.twitter.com/vGVTHYzTVy	stacyherbert	52	23	1477774579	792470139648311296	https://twitter.com/stacyherbert/status/792470139648311296			
	are they actually getting the vote? Mama mia. Will be fantastic to watch the Euro fireworks from the American sunshine.	stacyherbert	2	0	1477774431	792469520417947648	https://twitter.com/stacyherbert/status/792469520417947648			
	good theory	stacyherbert	2	0	1477774386	792469329342332928	https://twitter.com/stacyherbert/status/792469329342332928			
	# OrangeJuliusCaesar lol. I worked at Orange Julius when I was 16!	stacyherbert	0	0	1477774343	792469148974587905	https://twitter.com/stacyherbert/status/792469148974587905		#	
	lol, in what way is that tweet ambiguous? @ maxkeiser	stacyherbert	0	0	1477774188	792468500115755009	https://twitter.com/stacyherbert/status/792468500115755009			@
	never. I walk too much. My doctor actually told me I should GAIN seven pounds. :D	stacyherbert	0	0	1477774133	792468270326673408	https://twitter.com/stacyherbert/status/792468270326673408			
	"Yeah, well, there are many ""deeply troubling"" things about # Election2016https://twitter.com/SkyNewsBreak/status/792467684239736832 …"	stacyherbert	43	23	1477774033	792467851919720449	https://twitter.com/stacyherbert/status/792467851919720449		#	
	@ maxkeiser <-- called this!https://twitter.com/guardiannews/status/792467246429921288 …	stacyherbert	12	7	1477773955	792467522620719104	https://twitter.com/stacyherbert/status/792467522620719104			@
	Best bakery in North Carolina https://www.facebook.com/ThePhoenixBakery/ …	stacyherbert	2	0	1477773932	792467428169150465	https://twitter.com/stacyherbert/status/792467428169150465			
	Sunshine and iced coffee.pic.twitter.com/KXYqjnhFxO	stacyherbert	9	3	1477773582	792465959386812416	https://twitter.com/stacyherbert/status/792465959386812416			
	Go @ ncilla, go! Go, pirates, go! Hope @ birgittaj rules with the people!https://twitter.com/ThomasPiraat/status/792462261663203328 …	stacyherbert	39	22	1477773217	792464426603581440	https://twitter.com/stacyherbert/status/792464426603581440			@ @
	Here it is! Watch and rewatch and rerewatch! https://youtu.be/vzZetyg5eww https://twitter.com/PPete_En/status/792464050764513280 …	stacyherbert	11	7	1477773160	792464188933304320	https://twitter.com/stacyherbert/status/792464188933304320			
	Notice that Mark Carney is fleeing the Brexit circus before the real freak show begins.	stacyherbert	80	85	1477773096	792463921651253249	https://twitter.com/stacyherbert/status/792463921651253249			
	@ rcwhalen did you check out our interview with Eric Holder? From 07.40 https://youtu.be/vzZetyg5eww	stacyherbert	2	0	1477773039	792463682978611200	https://twitter.com/stacyherbert/status/792463682978611200			@
	Lolhttps://twitter.com/profstevekeen/status/792427757896630272 …	stacyherbert	12	2	1477767059	792438597932748805	https://twitter.com/stacyherbert/status/792438597932748805			
	Some fine ribs at the Pittsboro fair today.pic.twitter.com/7phIHzSdeP	stacyherbert	16	2	1477763234	792422556074668032	https://twitter.com/stacyherbert/status/792422556074668032			
	mom lived amongst the $20 million insurance execs homes outside of Hartford. Never understood why so many WANT it that way.	stacyherbert	1	0	1477761842	792416716177506304	https://twitter.com/stacyherbert/status/792416716177506304			
	A room with a view. NCpic.twitter.com/KniZ6Ptpf2	stacyherbert	17	2	1477760824	792412447378436098	https://twitter.com/stacyherbert/status/792412447378436098			
	Max, sunshine and coffee. Life is good.pic.twitter.com/exE4GQwWBC	stacyherbert	74	13	1477758033	792400741579325440	https://twitter.com/stacyherbert/status/792400741579325440			
	Best iced coffee in Pittsboro, NC - the centre of known universe. @ cafearomaticpic.twitter.com/n3Hq6FbWTG	stacyherbert	15	5	1477757971	792400480479608833	https://twitter.com/stacyherbert/status/792400480479608833			@
	Every day at 6.30 am, we get a cup of the best coffee in America at @ cafearomaticpic.twitter.com/akgYl4QKqX	stacyherbert	20	2	1477757808	792399798162821120	https://twitter.com/stacyherbert/status/792399798162821120			@
	Watch # KeiserReport ask Eric Holder some tough questions. Witness Holder's shocking answers. From 07.40:https://youtu.be/vzZetyg5eww	stacyherbert	40	53	1477749313	792364166799646720	https://twitter.com/stacyherbert/status/792364166799646720		#	
	Here is Carl Levin asking $ GS about the 'sacks of shit' https://www.youtube.com/watch?v=whlzFWwVv98 … Eric Holder claims he doesn't remember this.	stacyherbert	27	33	1477749095	792363253590552576	https://twitter.com/stacyherbert/status/792363253590552576			
	Eric Holder tells us he has no memory of Goldman Sachs' 'sacks of shit' or Carl Levin's report on said sacks https://youtu.be/vzZetyg5eww	stacyherbert	45	40	1477749052	792363072895803392	https://twitter.com/stacyherbert/status/792363072895803392			
	watch the full Eric Holder iphone ambush https://youtu.be/vzZetyg5eww	stacyherbert	6	3	1477748661	792361431752736768	https://twitter.com/stacyherbert/status/792361431752736768			
	Encountering Eric Holder. Watch the full interview --> https://youtu.be/vzZetyg5eww	stacyherbert	12	7	1477748630	792361300890423300	https://twitter.com/stacyherbert/status/792361300890423300			
	True! I now use my US SIM card when I'm in London rather than crappy UK onehttps://twitter.com/standardnews/status/792312528877432833 …	stacyherbert	9	6	1477737449	792314405845360640	https://twitter.com/stacyherbert/status/792314405845360640			
	pic.twitter.com/rMUHDZk6l3	stacyherbert	1	1	1477705557	792180641530019840	https://twitter.com/stacyherbert/status/792180641530019840			
	many in Clinton cabal wiping their tweets today @ rcwhalen @ HillaryClinton	stacyherbert	2	0	1477705270	792179438683324416	https://twitter.com/stacyherbert/status/792179438683324416			@ @
	wow, such a clean desk ...	stacyherbert	0	0	1477704964	792178155947749376	https://twitter.com/stacyherbert/status/792178155947749376			
	if we're still in town (likely), then DEFINITELY! We are in NYC for election. Fun stuff!	stacyherbert	0	0	1477704675	792176941436641280	https://twitter.com/stacyherbert/status/792176941436641280			
	this is the craziest election in US history surely?	stacyherbert	5	0	1477704193	792174921371750400	https://twitter.com/stacyherbert/status/792174921371750400			
	@ USAF20YRhttps://twitter.com/joshrosner/status/791809319687913472 …	stacyherbert	0	0	1477694045	792132356870111233	https://twitter.com/stacyherbert/status/792132356870111233			@
	thanks! The whole five minutes will be available tomorrow	stacyherbert	0	0	1477692707	792126745331789824	https://twitter.com/stacyherbert/status/792126745331789824			
	# Amazon Prime launches in # China http://tcrn.ch/2e8z4wk @ sarahintampa	sallyeaves	2	0	1477760370	792410544057806848	https://twitter.com/sallyeaves/status/792410544057806848		# #	@
	A pleasure Ronit :) Have a great day!	sallyeaves	1	0	1477743747	792340820569550848	https://twitter.com/sallyeaves/status/792340820569550848			
	Happy # Saturday everyone! 20 awards. 10th Nov. A day of # Celebrations & # entertainment Join us :) http://asianapprenticeshipawards.co.uk/ @ asianappawards	sallyeaves	3	3	1477743688	792340575190155264	https://twitter.com/sallyeaves/status/792340575190155264		# # #	@
	Take a walk into # VR with this omnidirectional treadmill! http://bit.ly/2ekvAUP # tech	sallyeaves	6	0	1477743076	792338005382004736	https://twitter.com/sallyeaves/status/792338005382004736		# #	
	Thank you Tracey! Have a lovely weekend everyone @ elephantgurl24 @ monibhachu @ dandb200 @ mbla807	sallyeaves	5	3	1477733886	792299462962053120	https://twitter.com/sallyeaves/status/792299462962053120			@ @ @ @
	Looks a great night - well done all! @Trevor_Acivico @ Iqbal_Sobia @ _Future_Leaders @ Chamberlains	sallyeaves	3	3	1477732914	792295384047583232	https://twitter.com/sallyeaves/status/792295384047583232			@Trevor_Acivico @ @ @
	More change to come ? # Twitter tests a new reply function which removes iconography of name, profile pic etc. Confusing! # socialmedia	sallyeaves	4	4	1477703743	792173034195083264	https://twitter.com/sallyeaves/status/792173034195083264		# #	
	A pleasure Maurice! All best wishes @ jeffersongraham	sallyeaves	0	0	1477702912	792169547428196352	https://twitter.com/sallyeaves/status/792169547428196352			@
	Sounds good Jay! @ Kim_buzz @ LauriDMeizler @ stacybud123 @ 8thmanuk @ LaniJDav @ Strictly_Chris	sallyeaves	3	1	1477702500	792167818708090880	https://twitter.com/sallyeaves/status/792167818708090880			@ @ @ @ @ @
ethereum 	Next Ethereum hard fork...https://twitter.com/ethereumproject/status/792046452046528512 …	barrysilbert	35	21	1477757989	792400555901583360	https://twitter.com/barrysilbert/status/792400555901583360			
bitcoin 	Barry Silbert Reveals 10 Bitcoin Predictions for 2017 https://news.bitcoin.com/barry-silbert-bitcoin-predictions-2017/?utm_source=twitter&utm_medium=social&utm_campaign=SocialWarfare … via @ BitcoinCom @allenscottoshi	barrysilbert	42	30	1477753783	792382916672225280	https://twitter.com/barrysilbert/status/792382916672225280			@ @allenscottoshi
	must. go. to. sleep	barrysilbert	1	0	1477711618	792206064548806656	https://twitter.com/barrysilbert/status/792206064548806656			
bitcoin 	Bitcoin > $700https://tradeblock.com/markets/bfnx/xbt-usd/5m/ …	barrysilbert	40	12	1477706443	792184357058383872	https://twitter.com/barrysilbert/status/792184357058383872			
bitcoin 	Why has the bitcoin price pumped the last few days?	jimmysong	0	0	1477773009	792463557061255168	https://twitter.com/jimmysong/status/792463557061255168			
	Fair enough. For the record, I'm still more convinced by your argument from 3 years ago than your current one.	jimmysong	0	0	1477700922	792161200918245376	https://twitter.com/jimmysong/status/792161200918245376			
bitcoin 	"""when I look at the merit Bitcoin holds over fiat, I am inspired. When I look at the merit alts hold over Bitcoin, I yawn."""	jimmysong	5	0	1477693450	792129859992420352	https://twitter.com/jimmysong/status/792129859992420352			
bitcoin litecoin 	This is what you wrote 2 years ago about litecoin: https://www.reddit.com/r/Bitcoin/comments/1rjv6l/my_response_to_a_litecoin_advocate/ …	jimmysong	1	0	1477693285	792129166720196612	https://twitter.com/jimmysong/status/792129166720196612			
	Dakota Access Pipeline Funding: Banks and Oil Companies in the Endless Destruction of Native Landshttp://ift.tt/2eHjtEF	DollarVigilante	14	10	1477777351	792481769002000384	https://twitter.com/DollarVigilante/status/792481769002000384			
	FBI Reopens Hillary Email Probe: Why Did It Take So Long? http://snip.ly/b2q6g # Activism	DollarVigilante	16	6	1477773044	792463702683488256	https://twitter.com/DollarVigilante/status/792463702683488256		#	
	# TDV # Quotes Subscribe--> http://dollarvigilante.com pic.twitter.com/9KQzOJcqph	DollarVigilante	14	6	1477771179	792455881430560772	https://twitter.com/DollarVigilante/status/792455881430560772		# #	
	Is This How World War III Begins, In Almost Complete Silence? # Syria # USA https://steemit.com/money/@dollarvigilante/is-this-how-world-war-iii-begins-in-almost-complete-silence …pic.twitter.com/AtEcaTkpM7	DollarVigilante	11	4	1477768868	792446186745626625	https://twitter.com/DollarVigilante/status/792446186745626625		# #	@dollarvigilante
	Join us here--> http://dollarvigilante.com # Anarchism # Voluntaryism # Truthpic.twitter.com/UhaDmPNmNL	DollarVigilante	8	2	1477762956	792421389701619712	https://twitter.com/DollarVigilante/status/792421389701619712		# # #	
	LEAKED AUDIO: HILLARY CLINTON PROPOSED RIGGING PALESTINIAN ELECTION http://ift.tt/2e8FLi4	DollarVigilante	16	7	1477762663	792420162192433152	https://twitter.com/DollarVigilante/status/792420162192433152			
	Blaming Russia For Everything Wrong in the US is Getting Dangerous http://snip.ly/fv9n1 # Activism	DollarVigilante	8	3	1477762237	792418375553126400	https://twitter.com/DollarVigilante/status/792418375553126400		#	
	Private Governance- Creating Order in Economic and Social Life https://www.dollarvigilante.com/blog/2016/03/15/anarchast-ep-281-edward-stringham-private-governance-creating-order-in-economic-and-social-life.html …pic.twitter.com/j3kn6KCNEN	DollarVigilante	12	5	1477758093	792400993472380929	https://twitter.com/DollarVigilante/status/792400993472380929			
	How HUD Makes Lousy Programs Look Great http://snip.ly/o9nif # Activism	DollarVigilante	7	0	1477756575	792394624681779202	https://twitter.com/DollarVigilante/status/792394624681779202		#	
	On The Fault Lines of Change: Globalization-v-Localization http://snip.ly/l1rje # Activism	DollarVigilante	7	2	1477756574	792394621582204928	https://twitter.com/DollarVigilante/status/792394621582204928		#	
	BlackStone Group Says The Market Is The Most Treacherous They Have Seen # Investing https://steemit.com/money/@dollarvigilante/blackstone-group-says-the-market-is-the-most-treacherous-they-have-seen …pic.twitter.com/tijPzo4Eqm	DollarVigilante	19	7	1477747051	792354678369554437	https://twitter.com/DollarVigilante/status/792354678369554437		#	@dollarvigilante
bitcoin 	# TDV # Quotes # Bitcoin http://dollarvigilante.com pic.twitter.com/Pein2yHQ5D	DollarVigilante	14	4	1477746511	792352414766620672	https://twitter.com/DollarVigilante/status/792352414766620672		# # #	
	# Economy # Stocks # Investing # Dollar Join us here--> http://dollarvigilante.com pic.twitter.com/NXnRMfZfz5	DollarVigilante	14	4	1477738288	792317926581870592	https://twitter.com/DollarVigilante/status/792317926581870592		# # # #	
	How to Prepare For the Coming Collapse @ TruthFrqncyNews # Dollar # Economy https://www.dollarvigilante.com/blog/2016/05/26/truth-frequency-radio-joe-joseph-prepare-coming-collapse.html …pic.twitter.com/PbinS8r8dR	DollarVigilante	10	3	1477736249	792309371187388418	https://twitter.com/DollarVigilante/status/792309371187388418		# #	@
	# Equality # Socialism # BernieSanders # Trump # HillaryClinton Subscribe here--> http://dollarvigilante.com pic.twitter.com/uLV2eo5TrI	DollarVigilante	10	2	1477730069	792283451793760256	https://twitter.com/DollarVigilante/status/792283451793760256		# # # # #	
	# DonaldTrump Warns of 'Very Scary Scenarios' for Stocks Ahead. # Trump https://www.dollarvigilante.com/blog/2016/08/06/donald-trump-warns-scary-scenarios-stocks-ahead-2.html …pic.twitter.com/y9UhDW5ntM	DollarVigilante	9	1	1477725448	792264070980313088	https://twitter.com/DollarVigilante/status/792264070980313088		# #	
	# TDV # Quotes Subscribe--> http://dollarvigilante.com pic.twitter.com/XV9ri4pNly	DollarVigilante	12	3	1477721847	792248966695915520	https://twitter.com/DollarVigilante/status/792248966695915520		# #	
	White House Petition To Remove ‘Soros-Owned Voting Machines’ Hits 100,000+ Signatureshttp://ift.tt/2fpvSyq	DollarVigilante	25	12	1477720337	792242634567872512	https://twitter.com/DollarVigilante/status/792242634567872512			
	How to Become a Perpetual Travel/Prior Taxpayer and Legally Never Pay Tax Again https://www.dollarvigilante.com/blog/2016/04/26/become-perpetual-travelerprior-taxpayer-pt-legally-never-pay-tax.html …pic.twitter.com/w2pk0YG4uj	DollarVigilante	12	1	1477714646	792218762476912641	https://twitter.com/DollarVigilante/status/792218762476912641			
	# TDV # Quotes Subscribe--> http://dollarvigilante.com pic.twitter.com/t1LmV7BZx2	DollarVigilante	12	4	1477713967	792215914922074112	https://twitter.com/DollarVigilante/status/792215914922074112		# #	
bitcoin 	# TDV # Quotes # Bitcoin http://dollarvigilante.com pic.twitter.com/wYgzSssoIz	DollarVigilante	14	3	1477709436	792196912766152704	https://twitter.com/DollarVigilante/status/792196912766152704		# # #	
	Distracted By Election 2016, No One Resisted The Deep State’s Patriot Act 2 http://snip.ly/9dtdk # Activism	DollarVigilante	13	5	1477708536	792193134029574144	https://twitter.com/DollarVigilante/status/792193134029574144		#	
	Legend of The Brave Buffalo; Thousands of Wild American Bison Appear at Standing Rock.http://ift.tt/2eF4gUP	DollarVigilante	16	9	1477706039	792182664312881157	https://twitter.com/DollarVigilante/status/792182664312881157			
	Billionaire Warns of Catastrophic Depths Not Seen in 5,000 Years # Gold https://dollarvigilante.com/blog/2016/09/15/another-billionaire-warns-catastrophic-depths-not-seen-5000-years-emphasizes-gold.html …pic.twitter.com/0Iky0Qsvdj	DollarVigilante	11	1	1477703856	792173508080066560	https://twitter.com/DollarVigilante/status/792173508080066560		#	
	Financial Whistleblower Explains What’s About to Happen to the Economy http://snip.ly/yz77z # Activism	DollarVigilante	12	5	1477702836	792169230145814528	https://twitter.com/DollarVigilante/status/792169230145814528		#	
	The West can learn to set a good example. @ RonPaul # Trump Subscribe--> http://dollarvigilante.com pic.twitter.com/tIPgCYLucJ	DollarVigilante	12	3	1477701218	792162441148891136	https://twitter.com/DollarVigilante/status/792162441148891136		#	@
	Technocracy: The Real Reason Why The UN Wants Control Over The Internet http://snip.ly/9dhzx # Activism	DollarVigilante	11	11	1477697478	792146753655037956	https://twitter.com/DollarVigilante/status/792146753655037956		#	
	Will Barack Obama Delay Or Suspend The Election If Hillary Is Forced Out By The New FBI Email Investigation? http://snip.ly/mb498 # Econ…	DollarVigilante	15	4	1477697294	792145984482643968	https://twitter.com/DollarVigilante/status/792145984482643968		#	
	Doug Casey- Hop on a Train or Die Full of Regrets. # Education # Anarchism https://www.dollarvigilante.com/blog/2016/03/17/anarchast-doug-casey-quit-school-and-hop-on-a-train-or-die-full-of-regrets-and-reincarnate-as-a-cockroach.html …pic.twitter.com/GTlrAoRVi7	DollarVigilante	10	1	1477693057	792128213443108864	https://twitter.com/DollarVigilante/status/792128213443108864		# #	
	Learn how to protect your assets. # Dollar # PetroDollar Subscribe here--> http://dollarvigilante.com pic.twitter.com/SvT5CMZoCv	DollarVigilante	11	3	1477692999	792127967879192576	https://twitter.com/DollarVigilante/status/792127967879192576		# #	
	lol at the @ Athletics deleting all the mean tweets at @ smashmouth. all the sports blogs already wrote it up, can't just erase them!	readDanwrite	2	0	1477769537	792448991736856576	https://twitter.com/readDanwrite/status/792448991736856576			@ @
	This is a little much. not a good look. time to fire yr social media intern https://twitter.com/athletics/status/792259886952357889 …	readDanwrite	5	2	1477763828	792425049240309760	https://twitter.com/readDanwrite/status/792425049240309760			
	@ NewYorkerpic.twitter.com/CKK0G8b4hc	readDanwrite	3	2	1477750038	792367207535808512	https://twitter.com/readDanwrite/status/792367207535808512			@
	I saw someone I respect today share a story about how annoying Joe Buck is. in the past, sure- but during # WorldSeries he's been just fine.	readDanwrite	2	0	1477709215	792195984918994950	https://twitter.com/readDanwrite/status/792195984918994950		#	
	Bill Murray is drunk.	readDanwrite	8	0	1477708906	792194686815436800	https://twitter.com/readDanwrite/status/792194686815436800			
	If digital news is struggling, it is because 8 of 10 stories on a big news event are pure recycling with no trace of new reporting added.	readDanwrite	5	0	1477708126	792191417653334016	https://twitter.com/readDanwrite/status/792191417653334016			
	it's an @ espn @ DavidPurdum story. at least credit the original source, rather than an aggregation.	readDanwrite	0	0	1477707408	792188405216149504	https://twitter.com/readDanwrite/status/792188405216149504			@ @
	kinda funny timing for an update to FanDuel's terms of use!pic.twitter.com/0SLDlIQVBG	readDanwrite	2	1	1477703818	792173345588539392	https://twitter.com/readDanwrite/status/792173345588539392			
	As has been the case for 2 years, DraftKings/FanDuel news ONLY comes out at 8pm on Friday nights.	readDanwrite	3	0	1477703136	792170488294432769	https://twitter.com/readDanwrite/status/792170488294432769			
	"Vine star on Twitter shutting Vine: ""Listen, mainstream media: we stopped using that app over a year ago."" https://m.youtube.com/watch?v=DcyLUL_5wCU&feature=share …"	readDanwrite	1	1	1477702748	792168859210018816	https://twitter.com/readDanwrite/status/792168859210018816			
	I'll say this yet again, # DFS folks: DraftKings-FanDuel merger will require either Jason Robins or Nigel Eccles standing down. hard to see.	readDanwrite	3	3	1477701686	792164404607455232	https://twitter.com/readDanwrite/status/792164404607455232		#	
	do keep in mind: 'Sources: DraftKings and FanDuel are about to merge' stories have been coming out steadily since June!	readDanwrite	6	0	1477701529	792163744755384320	https://twitter.com/readDanwrite/status/792163744755384320			
	"DraftKings on # DFS merger rumors: ""A potential combination would be interesting to consider""pic.twitter.com/1fv0Lqg5kl"	readDanwrite	1	0	1477701349	792162991139647489	https://twitter.com/readDanwrite/status/792162991139647489		#	
	Snapchat pro tip to make it not drain your battery: settings > TRAVEL MODE. h/t @ lbeshar	readDanwrite	1	0	1477698302	792150211783233536	https://twitter.com/readDanwrite/status/792150211783233536			@
	A Letter to the # Blockchain Community - The world does not want your freedom by @ bierlingm # fintechhttps://medium.com/the-exofiles/a-letter-to-the-blockchain-community-8217fd0a4757#.2npxizm9q …	sbmeunier	22	18	1477774834	792471209556533248	https://twitter.com/sbmeunier/status/792471209556533248		# # #	@
	Cool infographic -> the # RoboAdvisor Arms Race # fintech # wealthmanagement @ VisualCap http://www.visualcapitalist.com/robo-advisor-arms-race/ …pic.twitter.com/JOuODXuWW6	sbmeunier	18	21	1477771511	792457272983257088	https://twitter.com/sbmeunier/status/792457272983257088		# # #	@
	Samsung is eyeing a long game with US banks # fintech # wallets # payments http://www.americanbanker.com/news/bank-technology/the-us-roots-forming-samsungs-banking-strategy-1092170-1.html …pic.twitter.com/Shth8CwaVm	sbmeunier	3	4	1477767646	792441060765097984	https://twitter.com/sbmeunier/status/792441060765097984		# # #	
	Increasing irrelevance spells fractured future for banks # fintech # payments http://www.theaustralian.com.au/business/opinion/richard-gluyas-banking/increasing-irrelevance-spells-fractured-future-for-banks/news-story/6f31a40c9c7c6a6461e91cd1676b5e68 …pic.twitter.com/BhDfgFjIzw	sbmeunier	11	17	1477764308	792427062602698752	https://twitter.com/sbmeunier/status/792427062602698752		# #	
	Are Companies Ready For the Industrial # IoT? # insurtech # fintech @ VisualCap @ TamaraMcCleary http://ow.ly/6SQw305EHrM pic.twitter.com/sk8uTsxWSF	sbmeunier	9	13	1477760436	792410821263589376	https://twitter.com/sbmeunier/status/792410821263589376		# # #	@ @
	Insurance Technology Market Overview - Q4 2016 # insurtech # fintech @ VentureScanner https://www.venturescanner.com/blog/2016/insurance-technology-market-overview-q4-2016 …pic.twitter.com/LqKPSRE4US	sbmeunier	18	16	1477756826	792395679842832384	https://twitter.com/sbmeunier/status/792395679842832384		# #	@
	Could # Blockchain help track # IoT? # provenance # supplychain @ VentureBeat http://venturebeat.com/2016/10/29/blockchain-could-help-fix-iot-security-after-ddos-attack/ …pic.twitter.com/J4AS2h3tFg	sbmeunier	5	3	1477755189	792388811284160512	https://twitter.com/sbmeunier/status/792388811284160512		# # # #	@
bitcoin 	# Bitcoin volatility will match major fiat currencies by 2019 # fintech # trading by @ dangermouse117 http://woobull.com/bitcoin-volatility-will-match-major-fiat-currencies-by-2019/ …pic.twitter.com/od5DDSB5o4	sbmeunier	6	12	1477753223	792380568411467777	https://twitter.com/sbmeunier/status/792380568411467777		# # #	@
	# Blockchain & Coin news: Zcash, @ BlockstackOrg, and appcoins, oh my! # fintech https://techcrunch.com/2016/10/29/zcash-blockstack-and-appcoins-oh-my/ …pic.twitter.com/ea9Z6xO8vC	sbmeunier	10	23	1477749376	792364431439167489	https://twitter.com/sbmeunier/status/792364431439167489		# #	@
	# Fintech top100 innovators by @ H2_Ventures # payments # blockchain https://h2.vc/reports/fintechinnovators/2016 …pic.twitter.com/puaIRfgFoH	sbmeunier	6	8	1477744245	792342908506628096	https://twitter.com/sbmeunier/status/792342908506628096		# # #	@
	"""Counter-alchemists"" are transforming # blockchain fever into IT boredom by @ laurentbenichou # Insurtech # fintech https://steemit.com/blockchain/@laurentbenichou/counter-alchemists-please-stop-transforming-blockchain-fever-into-it-boredom …pic.twitter.com/awfzUrhoMA"	sbmeunier	11	15	1477695830	792139844784979970	https://twitter.com/sbmeunier/status/792139844784979970		# # #	@ @laurentbenichou
	sleep is for NEVER. we both know this.	Melt_Dem	9	0	1477711707	792206435211968512	https://twitter.com/Melt_Dem/status/792206435211968512			
	i checked @ Poloniex trollbox on the beach today - new low even for me. crypto at all time highs, meltem at personal lows.	Melt_Dem	39	5	1477711516	792205636490633216	https://twitter.com/Melt_Dem/status/792205636490633216			@
bitcoin 	bitcoin over 700. zcash launch crushed any prior token sale ever with no market depth. i just can't, crypto. supposed to be on vacation.	Melt_Dem	29	1	1477711450	792205358756425728	https://twitter.com/Melt_Dem/status/792205358756425728			
bitcoin 	welcome to # bitcoin! shall we talk about Hayek or Hobbs today? let me tell you about the time I read a book on game theory.	Melt_Dem	1	0	1477710954	792203279379955716	https://twitter.com/Melt_Dem/status/792203279379955716		#	
	Enjoyed speaking with you guys. Thanks for hosting me.	SimonDixonTwitt	2	1	1477717003	792228649059487744	https://twitter.com/SimonDixonTwitt/status/792228649059487744			
	Exactly.	SimonDixonTwitt	0	0	1477715155	792220899852201984	https://twitter.com/SimonDixonTwitt/status/792220899852201984			
	And we are back to blaming everything on the Russians. They make such bogeymen. Maybe even enough to distract from the leaks.https://twitter.com/ggreenwald/status/792318061906894848 …	el33th4xor	17	6	1477772272	792460463661604865	https://twitter.com/el33th4xor/status/792460463661604865			
	you must realize that Tor had the biggest marketing group, even if it wasn't called that.	el33th4xor	3	0	1477748326	792360026035847168	https://twitter.com/el33th4xor/status/792360026035847168			
	Trouble in the R3 paradise? » Banking Technologyhttp://www.bankingtech.com/612342/trouble-in-the-r3-paradise/ …	BitcoinByte	0	0	1477772145	792459932796874753	https://twitter.com/BitcoinByte/status/792459932796874753			
	Blockchain bandits hit crypto start-ups @ BBCWorld Stephanie Kent ( @ covertress) # Krypton # blockchain @ IOHK_Richardhttp://www.bbc.co.uk/news/technology-37307826 …	BitcoinByte	4	4	1477767239	792439356132851713	https://twitter.com/BitcoinByte/status/792439356132851713		# #	@ @ @
	yes it's scheduled for first thing tomorrow morning, thanks @ SimonCocking enjoyed it!	SimonCocking	0	0	1477772761	792462516781735937	https://twitter.com/SimonCocking/status/792462516781735937			@
	Business for Bohemians by @ idleracademy reviewed tmrw in @ Irish_TechNews http://irishtechnews.net/ITN3/category/reviews/ … @ SimonCocking # reviewspic.twitter.com/RP9MXNbBJq	SimonCocking	2	0	1477765204	792430818962661376	https://twitter.com/SimonCocking/status/792430818962661376		#	@ @ @
	# Robots Podcast : Satellite Assembly in Space, with John Lymer - http://go.shr.lc/2e1ApVz  via @ Irish_TechNews	SimonCocking	2	1	1477763806	792424955413667840	https://twitter.com/SimonCocking/status/792424955413667840		#	@
	Hardware, IoT, Quantified Self and much more. Entrepreneurial insights with Bay McLaughlin - http://go.shr.lc/2d7s2tN  via @ Irish_TechNews	SimonCocking	2	1	1477760790	792412304075874305	https://twitter.com/SimonCocking/status/792412304075874305			@
	Featured @ SolelyOriginal on Monday in Business Showcase http://irishtechnews.net/ITN3/category/business-showcase/ … @ SimonCocking @ Irish_TechNews # fashion # fashionbloggerpic.twitter.com/dUq0CJR3WL	SimonCocking	3	0	1477759707	792407762705739776	https://twitter.com/SimonCocking/status/792407762705739776		# #	@ @ @
	7 Ted Talks to Inspire Your Content Marketing | Digital Skills Academy https://shar.es/1I0H43  via @ sharethis	SimonCocking	1	0	1477757598	792398915324747776	https://twitter.com/SimonCocking/status/792398915324747776			@
	Fintech 20 event tickets almost all gone! & Weekend tech review - http://go.shr.lc/2dNSHvb  via @ Irish_TechNews	SimonCocking	4	0	1477757531	792398635489226752	https://twitter.com/SimonCocking/status/792398635489226752			@
	if you can mail us a copy happy to review it http://irishtechnews.net/ITN3/category/reviews/ … thanks @ SimonCocking @ Irish_TechNews	SimonCocking	0	0	1477735661	792306907625259008	https://twitter.com/SimonCocking/status/792306907625259008			@ @
	@ OverstockCEO mailed interview questions over, look forward to featuring you, fyi you might like http://irishtechnews.net/ITN3/fintech-20-event-tickets-almost-all-gone-weekend-tech-review/ … @ SimonCocking	SimonCocking	0	0	1477734383	792301545249538048	https://twitter.com/SimonCocking/status/792301545249538048			@ @
	Basking sharks up close and personal, pics and videos, Cape Clear https://sarahpaddleswim.wordpress.com/2016/06/28/basking-sharks-up-close-and-personal-pics-and-videos-cape-clear/ … via @aubreyramirez75	SimonCocking	4	1	1477733354	792297229776220160	https://twitter.com/SimonCocking/status/792297229776220160			@aubreyramirez75
	Business Showcase : Voyjer - http://go.shr.lc/2dHRBkI  via @ Irish_TechNews	SimonCocking	2	1	1477732619	792294149374476288	https://twitter.com/SimonCocking/status/792294149374476288			@
	Robots Podcast : Satellite Assembly in Space, with John Lymer - http://go.shr.lc/2e1ApVz  via @ Irish_TechNews	SimonCocking	9	3	1477732260	792292642939932672	https://twitter.com/SimonCocking/status/792292642939932672			@
	that's what galls me the most. $600 mil a year in stock comp. it shows what Jack thinks of public shareholders. $ twtr	GerberKawasaki	1	0	1477771824	792458585766629378	https://twitter.com/GerberKawasaki/status/792458585766629378			
	it's ok. It's twitter. I'm in the money making business. I don't care about twitter lovers feelings. I'm long google. Not twitter	GerberKawasaki	2	0	1477759790	792408110455369728	https://twitter.com/GerberKawasaki/status/792408110455369728			
	This is so scary to listen to. Listen @ tim_cook to the words of tech lord Steve Jobs. Apple needs to be shaken up! $ aaplhttps://twitter.com/ow/status/792284416286523392 …	GerberKawasaki	8	5	1477759681	792407652106055680	https://twitter.com/GerberKawasaki/status/792407652106055680			@
	It's time for # Comey to resign. Time to come clean on Monday. This joke of an # FBI director. A disgrace.https://twitter.com/repbeth1/status/792406197907300352 …	GerberKawasaki	7	4	1477759467	792406757553209348	https://twitter.com/GerberKawasaki/status/792406757553209348		# #	
	I think you're right. $ goog $ twtr. No love for dying platforms. Feels MySpace. Hope that doesn't happen. Loved my MySpace page.	GerberKawasaki	0	0	1477759345	792406246095597568	https://twitter.com/GerberKawasaki/status/792406246095597568			
	wow!!!	GerberKawasaki	1	0	1477759246	792405828783312898	https://twitter.com/GerberKawasaki/status/792405828783312898			
	why haven't they bought anyone. $ aapl	GerberKawasaki	2	1	1477759182	792405562021453828	https://twitter.com/GerberKawasaki/status/792405562021453828			
	sounds amazing. How much? Is this economically viable for the masses? This decade. $ tsla $ scty	GerberKawasaki	5	0	1477759141	792405389425807360	https://twitter.com/GerberKawasaki/status/792405389425807360			
	Ever see this scam before. Reality real estate star offers investment school for home flippers. # fliporflop # Trumphttp://www.cbsnews.com/news/flip-of-flop-classes-are-a-big-fail-for-many-students/ …	GerberKawasaki	7	1	1477758848	792404159496458240	https://twitter.com/GerberKawasaki/status/792404159496458240		# #	
	I have to give credit to Barack and Michelle Obama for being such great examples to our nation. Both amazing individuals and marriage.	GerberKawasaki	27	7	1477758191	792401405713592320	https://twitter.com/GerberKawasaki/status/792401405713592320			
	The freeways are packed with gas cars today and we're better off buying our own oil and having lower prices. Then sending the money to # Iran	GerberKawasaki	4	1	1477758041	792400773246169089	https://twitter.com/GerberKawasaki/status/792400773246169089		#	
	My point. If we don't allow US oil infrastructure. Then we can't compete with # OPEC and # Russia. They make money and force higher prices.	GerberKawasaki	2	0	1477757986	792400542613934080	https://twitter.com/GerberKawasaki/status/792400542613934080		# #	
	@ SenSanders @BLPictures do you own a tesla? Doubt it. I'm waiting for good cheap electric cars. Coming on a few years. $ tsla	GerberKawasaki	2	1	1477757902	792400193438126080	https://twitter.com/GerberKawasaki/status/792400193438126080			@ @BLPictures
	it's a sick way to counter # Iran. Our Mid East policies are a joke under # Obama.	GerberKawasaki	0	0	1477757846	792399956292141056	https://twitter.com/GerberKawasaki/status/792399956292141056		# #	
	low oil prices allows us to tax it more without hurting consumers. That is what is happening. We own tesla	GerberKawasaki	0	0	1477757756	792399580859990021	https://twitter.com/GerberKawasaki/status/792399580859990021			
	I support US oil independence. It is the best weapon against our enemies. # iran # russia	GerberKawasaki	0	0	1477757693	792399314869825540	https://twitter.com/GerberKawasaki/status/792399314869825540		# #	
	Investment advice: people who don't save worry more about investment performance, an excuse for bad spending habits. Start a savings plan.	GerberKawasaki	15	0	1477757580	792398843295911936	https://twitter.com/GerberKawasaki/status/792398843295911936			
	Anthony Weiner is under investigation. # Trump is accused of sexual assault by 13 women & being sued for fraud in multiple cases.	GerberKawasaki	0	0	1477757434	792398227748171776	https://twitter.com/GerberKawasaki/status/792398227748171776		#	
	Google made $5 bil net for the qtr and has $83 bil in cash. The only reason they have not bought twitter is they don't want too. $ goog $ twtr	GerberKawasaki	27	14	1477757178	792397154354552832	https://twitter.com/GerberKawasaki/status/792397154354552832			
	no, just stupidity. # fbi is a joke. There is nothing in these emails. They are duplicates to what they have seen already.	GerberKawasaki	0	0	1477757110	792396868571443201	https://twitter.com/GerberKawasaki/status/792396868571443201		#	
	agree and we own tesla. But we still use 95 mil BBD. So we should use US oil not # Iran # Russia	GerberKawasaki	0	0	1477757030	792396535652724736	https://twitter.com/GerberKawasaki/status/792396535652724736		# #	
	green energy is doing great. Did you see the new tesla solar roof. This is how you help the environment.	GerberKawasaki	0	0	1477756972	792396291732942849	https://twitter.com/GerberKawasaki/status/792396291732942849			
	we actually only have records back 6000 years. We always had vehicles. Horse and cart. We always will.	GerberKawasaki	0	0	1477756853	792395790090022912	https://twitter.com/GerberKawasaki/status/792395790090022912			
	When we don't buy US oil. We send our money to # Iran. # war # crimes US intercepts shipments of Iranian weapons.https://apple.news/ANq27mRBqQr2kWJrNkGV_3g …	GerberKawasaki	2	5	1477744456	792343795937316865	https://twitter.com/GerberKawasaki/status/792343795937316865		# # #	
	One small step for mankind.https://twitter.com/iwf/status/792342976651329537 …	GerberKawasaki	1	0	1477744315	792343204091748354	https://twitter.com/GerberKawasaki/status/792343204091748354			
	There is a reason why # kayne is successful. The Kanye Effect: Why Obnoxiously Confident People End Up Successfulhttps://apple.news/AWce8auRsSNerblaszoJ8oA …	GerberKawasaki	12	4	1477744278	792343048881442820	https://twitter.com/GerberKawasaki/status/792343048881442820		#	
	Pretty cool. $ tslahttps://techcrunch.com/2016/10/28/these-are-teslas-stunning-new-solar-roof-tiles-for-homes/?sr_share=facebook …	GerberKawasaki	5	5	1477713301	792213123725799424	https://twitter.com/GerberKawasaki/status/792213123725799424			
	On Monday the # FBI will release a statement clarifying their letter absolving # HillaryClinton of guilt. Want to bet? # Comey is just CHA,	GerberKawasaki	3	1	1477693720	792130991682904064	https://twitter.com/GerberKawasaki/status/792130991682904064		# # #	
	Cars are not going away nor is Bakken oil. They ship it by the reservation by train everyday. THIS IS A BIGGER RISK!	GerberKawasaki	2	0	1477693247	792129009001852928	https://twitter.com/GerberKawasaki/status/792129009001852928			
	We use cars everyday Bernie. We either buy oil from the US or # Russia # Iran # SaudiArabia What do you not understand.	GerberKawasaki	13	1	1477693202	792128818723057664	https://twitter.com/GerberKawasaki/status/792128818723057664		# # #	
	Showtime is stoked to have the Anthony Weiner documentary running on demand right now. The curse of Carlos Danger. # Comey # FBI # perverts	GerberKawasaki	6	1	1477693134	792128533653024769	https://twitter.com/GerberKawasaki/status/792128533653024769		# # #	
	We own one bank. Dont like most banks.	GerberKawasaki	0	0	1477692797	792127121544085504	https://twitter.com/GerberKawasaki/status/792127121544085504			
	Singapore Growth Surge for # Fintech Firmhttp://buff.ly/2dXySzj	obussmann	2	2	1477766460	792436087285223424	https://twitter.com/obussmann/status/792436087285223424		#	
	Read & share my blog with @ CreditsVision: Why # Blockchain Won’t Disrupt Banks First http://buff.ly/2dbSznk # FinTech http://buff.ly/2dbSfVy pic.twitter.com/JoVKDE5y16	obussmann	8	6	1477749123	792363368908816384	https://twitter.com/obussmann/status/792363368908816384		# #	@
	Barclays launches # fintech accelerator programme with 10 # fintech startupshttp://buff.ly/2eoplk2	obussmann	26	23	1477740060	792325359022768128	https://twitter.com/obussmann/status/792325359022768128		# #	
	Read & share my blog with @ CreditsVision: Why # Blockchain Won’t Disrupt Banks First http://bit.ly/2cKWJPy # FinTechpic.twitter.com/8pltqbraDq	obussmann	24	35	1477727127	792271113627639809	https://twitter.com/obussmann/status/792271113627639809		# #	@
	NFC # FinTech Banking Technology and Speedhttp://buff.ly/2djL9zQ	obussmann	1	0	1477722660	792252375708860416	https://twitter.com/obussmann/status/792252375708860416		#	
	US Bank Regulator Charts Path for # Blockchain Startup Oversighthttp://buff.ly/2dVETtN	obussmann	5	8	1477714799	792219406063570944	https://twitter.com/obussmann/status/792219406063570944		#	
	Like & share my blockchain post: Is # Blockchain going mainstream? You bet! http://bit.ly/2aWKAZp # FinTechpic.twitter.com/zZWfQ9Rokn	obussmann	8	4	1477707253	792187754046074881	https://twitter.com/obussmann/status/792187754046074881		# #	
	Beauty is in the eye of ...http://fb.me/8y3aM4kPa	Chris_Skinner	1	8	1477769694	792449650829688832	https://twitter.com/Chris_Skinner/status/792449650829688832			
	Sound advice ... although Iron Man may be better http://fb.me/7EnJqw9mp	Chris_Skinner	1	0	1477768079	792442875380396032	https://twitter.com/Chris_Skinner/status/792442875380396032			
	I hate Halloween as it always encourages the ex and her mother to turn uppic.twitter.com/jhBuoksMg6	Chris_Skinner	11	4	1477747737	792357554961715200	https://twitter.com/Chris_Skinner/status/792357554961715200			
	aha. Time for Bank Uranus ...	Chris_Skinner	0	0	1477737159	792313191128850432	https://twitter.com/Chris_Skinner/status/792313191128850432			
	My new service launching this week: Facebankpic.twitter.com/c6PJMTn3VK	Chris_Skinner	6	2	1477735666	792306928869314560	https://twitter.com/Chris_Skinner/status/792306928869314560			
	Facebankpic.twitter.com/DooO8jVq9u	Chris_Skinner	2	0	1477735649	792306857536843777	https://twitter.com/Chris_Skinner/status/792306857536843777			
	Google AI invents its own cryptographic algorithm; no one knows how it works cc @ brettkinghttp://arstechnica.co.uk/information-technology/2016/10/google-ai-neural-network-cryptography/ …	Chris_Skinner	5	4	1477729011	792279015499427840	https://twitter.com/Chris_Skinner/status/792279015499427840			@
	http://fb.me/7FZ1NeSJJ	Chris_Skinner	0	0	1477728943	792278729305227264	https://twitter.com/Chris_Skinner/status/792278729305227264			
	Would you do your banking with a tech startup?http://bit.ly/2dY6mLk	davidbrear	7	9	1477774818	792471140979634176	https://twitter.com/davidbrear/status/792471140979634176			
	The Biggest Money Mistakes We Make—Decade by Decade http://on.wsj.com/2eGE5wX	davidbrear	5	7	1477771210	792456008027279360	https://twitter.com/davidbrear/status/792456008027279360			
	How could the financial experts have got it so wrong on the economy yet again? http://ind.pn/2e8vAtI	davidbrear	1	1	1477767628	792440986626617344	https://twitter.com/davidbrear/status/792440986626617344			
	A tale of two banks: Lloyds falters, with no end in sight for RBS http://bit.ly/2f0cZPf	davidbrear	0	1	1477764002	792425776800997380	https://twitter.com/davidbrear/status/792425776800997380			
	Amazon Business Has Painted a Bullseye on the Industrial Supply Market http://on.inc.com/2f2XeGe	davidbrear	1	0	1477760439	792410834496589832	https://twitter.com/davidbrear/status/792410834496589832			
	consumers and customers. :)	davidbrear	0	0	1477760055	792409220587061248	https://twitter.com/davidbrear/status/792409220587061248			
	also # FOFU is a real thing!!	davidbrear	1	0	1477751975	792375331688677376	https://twitter.com/davidbrear/status/792375331688677376		#	
	thanks Adam. We try hard at least but the mainly down to the great guests	davidbrear	1	0	1477751256	792372316583985152	https://twitter.com/davidbrear/status/792372316583985152			
	not good then huh?!	davidbrear	0	0	1477750506	792369171690614784	https://twitter.com/davidbrear/status/792369171690614784			
	As an asylum seeker I have permission to work … but cannot open a bank accounthttp://bit.ly/2dX8umF	davidbrear	2	1	1477738852	792320291699560449	https://twitter.com/davidbrear/status/792320291699560449			
	Google's AI created its own form of encryption http://engt.co/2fgELer	davidbrear	3	0	1477735216	792305040635662336	https://twitter.com/davidbrear/status/792305040635662336			
	Are all billionaires this utterly revolting and in every way disgusting?https://twitter.com/ddale8/status/792454439286300672 …	dgwbirch	0	0	1477776087	792476463761125377	https://twitter.com/dgwbirch/status/792476463761125377			
	Love using inflight wifi - colossal modern engineering achievement, mild form of superpower - to mess around on Twitter instead of working	dgwbirch	9	4	1477774597	792470214638051328	https://twitter.com/dgwbirch/status/792470214638051328			
	why aren’t these same tax breaks available to non-luvvies? Then our talent could boom too.	dgwbirch	1	0	1477774505	792469829563416576	https://twitter.com/dgwbirch/status/792469829563416576			
	Now that’s a smackdown right therehttps://twitter.com/mattdpearce/status/792144889815322624 …	dgwbirch	1	0	1477773668	792466319207763969	https://twitter.com/dgwbirch/status/792466319207763969			
	Though I say so myself, the @ chyppings Future of Money Design Award ROCKS! Enter for 2017 at http://futuremoneyaward.com/	dgwbirch	2	1	1477773064	792463786364010500	https://twitter.com/dgwbirch/status/792463786364010500			@
	pic.twitter.com/VQOlMJO7sk	dgwbirch	3	1	1477772989	792463472760123392	https://twitter.com/dgwbirch/status/792463472760123392			
	that signatures are not security http://www.chyp.com/what-does-the-talmud-tell-us-about-applepay/ …	dgwbirch	2	0	1477772628	792461955718123520	https://twitter.com/dgwbirch/status/792461955718123520			
	Security is everyone’s responsibilitypic.twitter.com/4UglgGs5Al	dgwbirch	13	4	1477766816	792437581237682176	https://twitter.com/dgwbirch/status/792437581237682176			
	It was definitely that sort of week, really.pic.twitter.com/HcYsYr33rT	dgwbirch	3	0	1477766468	792436119891763200	https://twitter.com/dgwbirch/status/792436119891763200			
	I really wish our country was controlled by a sinister shamanistic cult instead of by bungling expert-free amateurshttp://buff.ly/2e81uGU	dgwbirch	5	2	1477766081	792434499179122688	https://twitter.com/dgwbirch/status/792434499179122688			
	Whoops just tweeted out of habit instead of texting. Lucky it was to my sister in law and not my mistress.	dgwbirch	3	0	1477762732	792420448462143488	https://twitter.com/dgwbirch/status/792420448462143488			
	# FF five go mad in Vegas @ terryc_uk @ mayazi @ hisalome @ GhelaBoskovich @ Chris_Skinner	dgwbirch	6	0	1477716773	792227686399770624	https://twitter.com/dgwbirch/status/792227686399770624		#	@ @ @ @ @
	Blockchain could help fix IoT security after DDoS attack http://venturebeat.com/2016/10/29/blockchain-could-help-fix-iot-security-after-ddos-attack/ … via @ VentureBeat	sytaylor	5	2	1477751622	792373852147974144	https://twitter.com/sytaylor/status/792373852147974144			@
	Cc @ tak_lohttps://twitter.com/sbmeunier/status/792044273722134528 …	sytaylor	9	5	1477751473	792373225799974912	https://twitter.com/sytaylor/status/792373225799974912			@
	With Zcash Launch, Blockchain Enters the Age of Anonymity http://bit.ly/2dOxiSm  via @ CoinDesk	sytaylor	2	0	1477701392	792163171712794624	https://twitter.com/sytaylor/status/792163171712794624			@
	#224 – Get out of a slump with these 3 fast steps http://dab.25stories.org/224	julianhosp	0	0	1477756983	792396337618808832	https://twitter.com/julianhosp/status/792396337618808832		#224	
	pic.twitter.com/SqGmy5v4aC	julianhosp	0	0	1477751163	792371925645402114	https://twitter.com/julianhosp/status/792371925645402114			
	This is how you get highly productive: http://bit.ly/28O8SWW pic.twitter.com/lNiudawLUT	julianhosp	0	0	1477746172	792350991840608257	https://twitter.com/julianhosp/status/792350991840608257			
	The immense advantages of having/being an exchange student http://www.25stories.org/#!The-immense-advantages-of-havingbeing-an-exchange-student-Julians-Daily-Audio-Blog-DAB-Podcast-120/zq64b/577255c90cf2bcae6e418e5e … # exchangestudent # exchangeyearpic.twitter.com/sv3RNCwo9s	julianhosp	0	0	1477731713	792290348122996736	https://twitter.com/julianhosp/status/792290348122996736		# # #	
	Guest Podcast - 8 questions, 8 answers, 8 ideas http://sterlingandstone.net/podcast/8q43-leapfrogging-highperformer-julian-hosp/ … # podcast # show # eightquestions # book # idea	julianhosp	0	0	1477720849	792244779434270720	https://twitter.com/julianhosp/status/792244779434270720		# # # # #	
	Be limitless! Dominate! See you! https://www.instagram.com/p/BMIm1g6j2kZ/	julianhosp	0	0	1477717576	792231053238886400	https://twitter.com/julianhosp/status/792231053238886400			
	#243 – Wie dich der „Survivorship Bias“ zu falschen Dingen inspirieren kann http://tab.25geschichten.de/243	julianhosp	0	0	1477713642	792214552234590208	https://twitter.com/julianhosp/status/792214552234590208		#243	
	#240 – Bonus: The power of intermittent fasting http://dab.25stories.org/240	julianhosp	0	0	1477710067	792199558512119808	https://twitter.com/julianhosp/status/792199558512119808		#240	
	#243 – Why the survivorship bias might cause you to do wrong things http://dab.25stories.org/243	julianhosp	0	0	1477702808	792169109295362048	https://twitter.com/julianhosp/status/792169109295362048		#243	
	#215 – The 3 levels of happiness http://dab.25stories.org/215	julianhosp	0	0	1477699318	792154474852786180	https://twitter.com/julianhosp/status/792154474852786180		#215	
	#243 – Why the survivorship bias might cause you to do wrong things http://dab.25stories.org/243	julianhosp	0	0	1477692022	792123871046631424	https://twitter.com/julianhosp/status/792123871046631424		#243	
bitcoin 	# Bitcoin's Block Size Debate is Back (And It Might Be Worse Than Ever) # fork # hardfork # consensushttp://www.coindesk.com/bitcoins-block-size-debate-still-raging-might-worse-ever/ …	AntonioSelas	1	3	1477763547	792423870263353344	https://twitter.com/AntonioSelas/status/792423870263353344		# # # #	
	# Blockchain could help fix # IoT security after # ddosattackhttp://venturebeat.com/2016/10/29/blockchain-could-help-fix-iot-security-after-ddos-attack/ …	AntonioSelas	3	4	1477753667	792382427851292673	https://twitter.com/AntonioSelas/status/792382427851292673		# # #	
	¿Pueden ser los # pagos más rápidos, sencillos y seguros? # fintech # paymentshttps://bbvaopen4u.com/es/actualidad/pueden-ser-los-pagos-mas-rapidos-sencillos-y-seguros …	AntonioSelas	0	4	1477752461	792377369579446276	https://twitter.com/AntonioSelas/status/792377369579446276		# # #	
	Report # blockchain, in arrivo i primi studi globali # cryptocurrency # startuphttp://www.startupbusiness.it/blockchain-in-arrivo-il-primo-studio-globale-ccaf/89234/ …	AntonioSelas	2	13	1477751791	792374560096223234	https://twitter.com/AntonioSelas/status/792374560096223234		# # #	
	# Blockchain’s # SmartContract Solution Wins Ernst Young Startup Challenge @ adjoint_io @ EY_TMT # EYStartupChallengehttp://www.natlawreview.com/article/blockchain-s-smart-contract-solution-wins-ernst-young-startup-challenge …	AntonioSelas	2	4	1477751219	792372161004638209	https://twitter.com/AntonioSelas/status/792372161004638209		# # #	@ @
	Singapore, the # fintech prodigy, Technology # Banking # brexit @ MAS_sghttp://www.businesstimes.com.sg/technology/singapore-the-fintech-prodigy …	AntonioSelas	0	4	1477746519	792352447188570112	https://twitter.com/AntonioSelas/status/792352447188570112		# # #	@
	Accenture Sets Off a New # Blockchain Debate # immutability # editability # scalability @ Accenturehttp://m.institutionalinvestor.com/Article.aspx?ArticleID=3597567 …	AntonioSelas	0	0	1477727225	792271521293168640	https://twitter.com/AntonioSelas/status/792271521293168640		# # # #	@
	How # Insurtech Is Rapidly Changing Insurance And Health Tech Industries - Forbes # IoT # blockchainhttp://www.forbes.com/sites/vladislavsolodkiy/2016/10/20/how-insurtech-is-rapidly-changing-insurance-and-health-tech-industries/#35e2f08c4ba9 …	AntonioSelas	3	3	1477721003	792245425797464064	https://twitter.com/AntonioSelas/status/792245425797464064		# # # #35e2f08c4ba9	
	コメントできませんwww	mochi_wsj	1	0	1477700629	792159970192035840	https://twitter.com/mochi_wsj/status/792159970192035840			
	台本にはなかったんですか（笑　それはすごですね…。信長は強力な援軍ですね。ぼくも好きなシリーズなだけに楽しみです。	mochi_wsj	1	0	1477700604	792159866957594624	https://twitter.com/mochi_wsj/status/792159866957594624			
	The student always tries to outdo the teacher and I'm still trying # alwayslearning # pathway2growhttps://twitter.com/khalid_karim/status/792456244401467392 …	SafarazAli	2	1	1477771513	792457281422168065	https://twitter.com/SafarazAli/status/792457281422168065		# #	
	# mbcca2016 @ abidmk55 @ jabsb8academy @ isamutlib @ Hira_Malik786 @ eddie_pathway @ CathyKubiak @ ThinkFest @ pathwaygroup & of course @ Khalid_Karimpic.twitter.com/oMwKzYBcjx	SafarazAli	7	8	1477771451	792457018548289536	https://twitter.com/SafarazAli/status/792457018548289536		#	@ @ @ @ @ @ @ @ @
	' @ bradcedwards good to see you off duty & in front of camera today with @ NadiaRasul81 # mbcca2016 @ ThinkFestpic.twitter.com/CfvRSWSBOP	SafarazAli	7	7	1477768287	792443751134289921	https://twitter.com/SafarazAli/status/792443751134289921		#	@ @ @
	Free market networking protocols have nothing to do with State-managed fiat currency regimes.	jonmatonis	0	0	1477743738	792340784796270592	https://twitter.com/jonmatonis/status/792340784796270592			
	A globally-interoperable protocol is much stronger and resilient when majority of users coalesce around one standard.	jonmatonis	2	0	1477743087	792338052735758336	https://twitter.com/jonmatonis/status/792338052735758336			
	Double buffering for Emacs https://m.facebook.com/notes/daniel-colascione/buttery-smooth-emacs/10155313440066102?utm_content=bufferad5ce&utm_medium=social&utm_source=twitter.com&utm_campaign=buffer …pic.twitter.com/bIp5jDl4e1	jgarzik	3	4	1477766613	792436728615362560	https://twitter.com/jgarzik/status/792436728615362560			
	It gets into semantics. Voting and signaling are sorta the same thing.	jgarzik	3	2	1477762916	792421223695167488	https://twitter.com/jgarzik/status/792421223695167488			
	"""I was a Zcash billionaire"" - great bumper sticker"	jgarzik	19	1	1477695008	792136395150102528	https://twitter.com/jgarzik/status/792136395150102528			
bitcoin 	Feels good to be right. # BitcoinMaximalism	SunnyStartups	5	0	1477752193	792376247083003904	https://twitter.com/SunnyStartups/status/792376247083003904		#	
bitcoin 	Blockchain Revolution review – Satoshi Nakamoto’s world-changing innovationhttps://www.theguardian.com/books/2016/jul/06/blockchain-revolution-how-technology-behind-bitcoin-changing-money-business-don-alex-tapscott-review?CMP=share_btn_tw …	SunnyStartups	5	4	1477723681	792256657480966145	https://twitter.com/SunnyStartups/status/792256657480966145			
	Broker-Underwriter(s) interaction is P2P too. Watch them working in @ LloydsofLondon Not same as GI # insurance	gpn01	1	0	1477763254	792422641281949696	https://twitter.com/gpn01/status/792422641281949696		#	@
	Why do u think there would be no broker in commercial insurance?	gpn01	0	0	1477741496	792331380671774720	https://twitter.com/gpn01/status/792331380671774720			
	Just getting the market to explore it is a msjor step forward.	gpn01	1	0	1477739132	792321465102327810	https://twitter.com/gpn01/status/792321465102327810			
	AI + AI vs AI ? Interesting way of developing crypto! https://lnkd.in/dCnW2G7	gpn01	0	0	1477733563	792298107493048320	https://twitter.com/gpn01/status/792298107493048320			
	When Artists & Techies collaborate to produce a # Blockchain video https://youtu.be/2Zp37zarSQc	gpn01	0	0	1477732619	792294148879609856	https://twitter.com/gpn01/status/792294148879609856		#	
	Another example of # Blockchain in # Insurance https://youtu.be/OlOA4tnDq-g # InsTech # InsurTech	gpn01	2	2	1477732316	792292874620637185	https://twitter.com/gpn01/status/792292874620637185		# # # #	
	# ICYMI: How will the internet be disrupted? I spoke at @ ideacity and explained the next digital revolution!http://bit.ly/2dOD4nj	alextapscott	4	2	1477700119	792157830887473152	https://twitter.com/alextapscott/status/792157830887473152		#	@
	# ICYMI: What is the most important emerging technology for CIOs? It is not # Cloud or # BigData. It is # Blockchain.http://bit.ly/2eMtGx4	alextapscott	12	3	1477693210	792128853003145216	https://twitter.com/alextapscott/status/792128853003145216		# # # #	
	Here's hoping these solutions are scalable... # Problemsolved # innovation # developmenthttps://twitter.com/globaldevlab/status/792170399576494080 …	DianacBiggs	2	1	1477704024	792174212500844544	https://twitter.com/DianacBiggs/status/792174212500844544		# # #	
	Have fun all. More productive things to do then talk about DAO, Slock.it, BF	diiorioanthony	0	0	1477776403	792477789307928576	https://twitter.com/diiorioanthony/status/792477789307928576			
	No. You.	diiorioanthony	0	0	1477776351	792477572684718080	https://twitter.com/diiorioanthony/status/792477572684718080			
	Why do I need to answer your questions?? So much more important things to do	diiorioanthony	0	0	1477776341	792477530959806465	https://twitter.com/diiorioanthony/status/792477530959806465			
	Many questions are simple. Doesn't mean I have to answer them. Neither do u.	diiorioanthony	0	0	1477776279	792477272133496836	https://twitter.com/diiorioanthony/status/792477272133496836			
	"lol, pinned about what??? Please clarify how I'm ""pinned"""	diiorioanthony	0	0	1477776212	792476987570941954	https://twitter.com/diiorioanthony/status/792476987570941954			
bitcoin 	Why should I answer crazy questions about slock.its?? daos?? bitcoin foundations?? I really don't have opinions on them honestly.	diiorioanthony	0	0	1477776167	792476800848887808	https://twitter.com/diiorioanthony/status/792476800848887808			
	Why are you asking me things about the BF? I could care less about them.	diiorioanthony	0	0	1477776054	792476328952029184	https://twitter.com/diiorioanthony/status/792476328952029184			
	Sorry Cyril, I'm not comprehending anything your saying. Very confused.	diiorioanthony	0	0	1477776026	792476208093159424	https://twitter.com/diiorioanthony/status/792476208093159424			
	This is what they call a twitter thread off the tracks that spiraled way out of control.	diiorioanthony	0	0	1477775980	792476015742386177	https://twitter.com/diiorioanthony/status/792476015742386177			
	Substance is the past tweets of mine and others. Read it.	diiorioanthony	0	0	1477775807	792475291776118784	https://twitter.com/diiorioanthony/status/792475291776118784			
	What contracts are you talking about?? and why?? you're all over the map.	diiorioanthony	0	0	1477775725	792474945376940032	https://twitter.com/diiorioanthony/status/792474945376940032			
	Why are you talking about Slock,it??? Throwing the conversation in crazy directions.	diiorioanthony	1	0	1477775690	792474798257569792	https://twitter.com/diiorioanthony/status/792474798257569792			
	Its amazing how tweet convos get off the rails from the initial tweet. DAO's BF wtf?	diiorioanthony	1	0	1477775626	792474532435156992	https://twitter.com/diiorioanthony/status/792474532435156992			
	Haven't they always been wrong :)	diiorioanthony	0	0	1477775532	792474136484388864	https://twitter.com/diiorioanthony/status/792474136484388864			
	I like to think we're all in this together & we should unite. Witnessing a lot of sulking from other communities due to success of @ zcashco	diiorioanthony	12	3	1477774274	792468862331650048	https://twitter.com/diiorioanthony/status/792468862331650048			@
	"Back to your initial tweet. You believe that because @ zcashco has a PR person ""they' are doing it wrong. Correct?"	diiorioanthony	0	0	1477774108	792468165540376576	https://twitter.com/diiorioanthony/status/792468165540376576			@
bitcoin 	Exactly, because Bitcoin is decentralized. Not sure what your point is. Please clarify.	diiorioanthony	0	0	1477773909	792467329032617984	https://twitter.com/diiorioanthony/status/792467329032617984			
	Tin hat Cyril, Tin hat.	diiorioanthony	0	0	1477773734	792466595956269056	https://twitter.com/diiorioanthony/status/792466595956269056			
	"Neither did Silk Road or Ross Ulbricht. Been sensing Zcash ""jealousy"" past couple days."	diiorioanthony	2	0	1477773690	792466410681360385	https://twitter.com/diiorioanthony/status/792466410681360385			
	What I'm understanding is that you're believe a cryptocurrency is not decentralized if a groups supports it. Right?	diiorioanthony	0	0	1477772193	792460131023880192	https://twitter.com/diiorioanthony/status/792460131023880192			
	Time will tell.	diiorioanthony	1	0	1477772007	792459350891692037	https://twitter.com/diiorioanthony/status/792459350891692037			
	most? Similar to businesses I consult, I'm seeing gov. wanting to explore tech, learn, & not stifle innovation.	diiorioanthony	1	0	1477771980	792459238530543616	https://twitter.com/diiorioanthony/status/792459238530543616			
	Can't the cryptocurrency itself be decentralized & companies / foundations / groups support it? @ zooko @ zcashco	diiorioanthony	2	0	1477741636	792331966389612544	https://twitter.com/diiorioanthony/status/792331966389612544			@ @
	"I'm confused, are you talking about ""people"" or the actual cryptocurrency. What & who are doing ""it"" wrong?"	diiorioanthony	1	0	1477697133	792145306511171588	https://twitter.com/diiorioanthony/status/792145306511171588			
	Purchased the @ google Pixel XL this week. I'll admit, I'm hooked on Google. <sigh>https://techcrunch.com/2016/10/05/not-ok-google/ …	diiorioanthony	2	0	1477696337	792141969661235200	https://twitter.com/diiorioanthony/status/792141969661235200			@
	highly illegalhttps://twitter.com/zerohedge/status/792401386092855296 …	TonyGallippi	0	0	1477759866	792408431437152256	https://twitter.com/TonyGallippi/status/792408431437152256			
	Buy-to-let investors shrug off extra 3% stamp duty http://www.thetimes.co.uk/article/67cfbf94-9d3f-11e6-af4a-15a7db50bae8 …	robdgill	1	0	1477723343	792255241236381697	https://twitter.com/robdgill/status/792255241236381697			
	Jump in US GDP boosts case for rate rise this year http://www.thetimes.co.uk/article/1b478242-9d3f-11e6-af4a-15a7db50bae8 …	robdgill	0	0	1477723204	792254656412000256	https://twitter.com/robdgill/status/792254656412000256			
	Standard and Poor's says UK's credit rating could be downgraded further amid Brexit uncertainty http://www.ibtimes.co.uk/standard-poors-says-uks-credit-rating-could-be-downgraded-further-amid-brexit-uncertainty-1588864 …	robdgill	2	2	1477721021	792245503232712704	https://twitter.com/robdgill/status/792245503232712704			
	No 10 must have promised Nissan something, say ex-business ministers https://www.theguardian.com/business/2016/oct/28/no-10-must-have-promised-nissan-something-say-former-business-ministers-anna-soubry-vince-cable-car …	robdgill	0	0	1477721006	792245437851992064	https://twitter.com/robdgill/status/792245437851992064			
	Apple Macs cost £300 more after Brexit votehttp://www.thetimes.co.uk/article/cff220b0-9d46-11e6-b375-620558266136 …	robdgill	1	2	1477720835	792244723519979520	https://twitter.com/robdgill/status/792244723519979520			
	Seems like the last thing the country needs right now - Carney may announce his resignation http://www.thetimes.co.uk/article/fa17311c-9d48-11e6-b375-620558266136 …	robdgill	0	1	1477720410	792242938894049280	https://twitter.com/robdgill/status/792242938894049280			
	RThttps://twitter.com/CashaaLtd/status/792301838351544320 …	kgauravITC	2	23	1477734972	792304014729682944	https://twitter.com/kgauravITC/status/792304014729682944			
	I have a lot of outstanding promises to history and to humanity. I'm not sure that I can deliver them alone, but there are paths yet untried	leashless	26	4	1477743860	792341293498298368	https://twitter.com/leashless/status/792341293498298368			
	I actually laughed. Do you have coordinates for tonight?	leashless	1	0	1477743763	792340886613090304	https://twitter.com/leashless/status/792340886613090304			
	come on over!	leashless	1	0	1477698239	792149949269946368	https://twitter.com/leashless/status/792149949269946368			
	The latest # Leadership Top Posts! http://paper.li/HLeichsenring/1341491519?edition_id=cf868a20-9dd3-11e6-b65b-0cc47a0d1609 … # leadership # success	HLeichsenring	0	0	1477744373	792343447453786112	https://twitter.com/HLeichsenring/status/792343447453786112		# # #	
	Neu: FinTech, # Daten, # Blockchain und # Biometrie -http://bit.ly/2eX0vZl # Finanzdienstleistungpic.twitter.com/z7t67dnsjb	HLeichsenring	3	1	1477713712	792214843625439232	https://twitter.com/HLeichsenring/status/792214843625439232		# # # #	
	Google taught # AI to encrypt messages on its own. https://techcrunch.com/2016/10/28/googles-ai-creates-its-own-inhuman-encryption/ …	DeanDemellweek	3	1	1477741907	792333105805856768	https://twitter.com/DeanDemellweek/status/792333105805856768		#	
	"A Premium Alert issued "" Factor Update – October 30, 2016"". See http://zpr.io/Pg3i7 # Factormembers"	PeterLBrandt	5	1	1477775554	792474229727956993	https://twitter.com/PeterLBrandt/status/792474229727956993		#	
	I do not stay around very long on trades that do not work.	PeterLBrandt	82	18	1477706700	792185435686629376	https://twitter.com/PeterLBrandt/status/792185435686629376			
	@ HuffingtonPost Tax evading & draft-dodging Trump comparing Clinton & Watergate? There is no comparison but his followers believe anything	RonnieMoas	1	0	1477776257	792477177090564096	https://twitter.com/RonnieMoas/status/792477177090564096			@
	@ HuffingtonPost why arent 'pro-life' conservatives doing more about 3,000,000 children < age five who starve to death every year worldwide?	RonnieMoas	0	0	1477774643	792470407555211265	https://twitter.com/RonnieMoas/status/792470407555211265			@
	@ HuffingtonPost 1,500,000 dead from tobacco in this country in four years and we are still talking about Benghazi?	RonnieMoas	0	1	1477774515	792469870722056192	https://twitter.com/RonnieMoas/status/792469870722056192			@
	@ HuffingtonPost Trump reading right off of Hitler's script and no Clinton surrogate brings this up? Unbelievable.http://www.businessinsider.com/donald-trumps-ex-wife-once-said-he-kept-a-book-of-hitlers-speeches-by-his-bed-2015-8 …	RonnieMoas	0	0	1477772867	792462961528934400	https://twitter.com/RonnieMoas/status/792462961528934400			@
	@ HuffingtonPost half of the skeletons in Trump's closet have not even been exposed ... Clinton surrogates could be doing much better	RonnieMoas	0	0	1477772724	792462360187469829	https://twitter.com/RonnieMoas/status/792462360187469829			@
	@ HuffingtonPost 10,000 show up to see Trump in a city of 200,000 and he boasts / his supporters eat that up even though 95% did not show up	RonnieMoas	0	0	1477772658	792462082222555136	https://twitter.com/RonnieMoas/status/792462082222555136			@
	@ HuffingtonPost I can only imagine what would be revealed if Republican emails were hacked; incompetent Clinton surrogates dropping the ball	RonnieMoas	0	0	1477772562	792461678558507008	https://twitter.com/RonnieMoas/status/792461678558507008			@
	@ HuffingtonPost If only all those who settled and signed non-disclosure (and non-disparagement) agreements with Trump were allowed to speak	RonnieMoas	0	0	1477772429	792461124272787458	https://twitter.com/RonnieMoas/status/792461124272787458			@
	"When you run a specific version of full node software you aren't ""voting"" on anything. You're signaling that people may join your network."	lopp	33	12	1477760018	792409065083338752	https://twitter.com/lopp/status/792409065083338752			
	# Stratis Platform added to Microsoft's Azure BaaS Program $ STRAT # blockchain # FinTechhttp://cryptohustle.com/stratis-platform-added-to-microsofts-azure-baas-program …	CryptoHustle	55	60	1477770995	792455109879836672	https://twitter.com/CryptoHustle/status/792455109879836672		# # #	
	Not yet, haven't even had a first payout. Glad I was conservative on my test.	CryptoHustle	0	0	1477760091	792409374664765440	https://twitter.com/CryptoHustle/status/792409374664765440			
	Lots of blood in # altcoins... once BTC corrects or consolidates we should get some really nice bounce plays.	CryptoHustle	11	4	1477756673	792395036704976896	https://twitter.com/CryptoHustle/status/792395036704976896		#	
	Love it!	CryptoHustle	1	0	1477753993	792383796385501184	https://twitter.com/CryptoHustle/status/792383796385501184			
	Looks like $ STRAT doesn't give two satoshis what the hell $ BTC is doing.	CryptoHustle	10	1	1477753757	792382806777135104	https://twitter.com/CryptoHustle/status/792382806777135104			
	Yes indeed!	CryptoHustle	0	0	1477753663	792382411472461824	https://twitter.com/CryptoHustle/status/792382411472461824			
	*they	CryptoHustle	0	0	1477753478	792381636432179200	https://twitter.com/CryptoHustle/status/792381636432179200			
bitcoin 	China's not f%^&$'n around anymore. The want their $ BTC and they want it now! # bitcoin	CryptoHustle	9	6	1477753322	792380982888321025	https://twitter.com/CryptoHustle/status/792380982888321025		#	
bitcoin 	$ ZEC launch breaks records... $ BTC # bitcoin # altcoins # blockchain # FinTechhttp://cryptohustle.com/zcash-launch-breaks-records …	CryptoHustle	11	13	1477751732	792374312950898688	https://twitter.com/CryptoHustle/status/792374312950898688		# # # #	
bitcoin 	Record breaking volume on BTCChina. # bitcoin $ BTCpic.twitter.com/iVVl6Cep1E	CryptoHustle	24	19	1477714580	792218486118330368	https://twitter.com/CryptoHustle/status/792218486118330368		#	
	The only real $ ZEC play I could see today was mining and selling.	CryptoHustle	2	0	1477713840	792215382517960704	https://twitter.com/CryptoHustle/status/792215382517960704			
	Poloniex knows how to make a market. lol	CryptoHustle	1	0	1477713780	792215132658991104	https://twitter.com/CryptoHustle/status/792215132658991104			
	Crypto is full of surprises, and here I was thinking that 1 $ BTC on $ ZEC futures was crazy. How about 2500 BTC YOLO FOMO like a MOFO crazy!!	CryptoHustle	22	5	1477713676	792214695629299712	https://twitter.com/CryptoHustle/status/792214695629299712			
	things are knifing...	cburniske	1	0	1477755115	792388501044129793	https://twitter.com/cburniske/status/792388501044129793			
bitcoin ethereum 	With all eyes on # bitcoin & # zcash, # Ethereum's ether has hit a critical line of support pic.twitter.com/OL5x3VmdL2	cburniske	23	12	1477753849	792383191835377664	https://twitter.com/cburniske/status/792383191835377664		# # #	
bitcoin 	# bitcoin's market cap has gone ~3X in a year	cburniske	42	24	1477745993	792350240246468610	https://twitter.com/cburniske/status/792350240246468610		#	
	I think the only way this election could get more ridiculous is if Weiner were sexting Hillary.	AriannaSimpson	8	0	1477705795	792181640684371968	https://twitter.com/AriannaSimpson/status/792181640684371968			
	PHEW	AriannaSimpson	0	0	1477704902	792177894420197377	https://twitter.com/AriannaSimpson/status/792177894420197377			
	Treechains is a reference to Canada. Was gonna call it EndlessRocksAndTreesAndSnowChains but decided to shorten the name a bit.	peterktodd	6	2	1477744917	792345730866417665	https://twitter.com/peterktodd/status/792345730866417665			
bitcoin 	Awesome point-by-point response to @ jgarzik's anti-segwit FUD by Anthony Towns:https://www.reddit.com/r/Bitcoin/comments/59ulc6/segregated_witness_costs_and_risks/d9c9q10/?context=1 …	peterktodd	62	49	1477736623	792310941253853184	https://twitter.com/peterktodd/status/792310941253853184			@
	"I don't consider that an ""attack"" :)"	peterktodd	2	1	1477719863	792240642847977472	https://twitter.com/peterktodd/status/792240642847977472			
	Someone should start a list of how many People/Companies # ZCash implosion will take down w/ em (like # TheDAO did)	ToneVays	3	3	1477774176	792468448278380545	https://twitter.com/ToneVays/status/792468448278380545		# #	
bitcoin 	What a perfect place to find # ZCash on the @ CoinMKTCap list :). Right where it belongs, next to # auroracoin & a # Steemit $ SMD. # Bitcoinpic.twitter.com/6CplmsiG7N	ToneVays	51	30	1477773627	792466148210147328	https://twitter.com/ToneVays/status/792466148210147328		# # # #	@
bitcoin 	This is why i have never connect a satoshi digitally to my Gov't identity: http://www.bna.com/bitcoin-accounts-may-n17179911550/ …	ToneVays	1	0	1477768637	792445219614629889	https://twitter.com/ToneVays/status/792445219614629889			
	I disagree, a US person is exposed, just having a Russian bank account for a US citizen (or dual) can land you in deep shit -FBAR	ToneVays	0	0	1477768520	792444726423289856	https://twitter.com/ToneVays/status/792444726423289856			
	It's very easy for 'players' to evade regs, much harder for Rock Stars like Zooco, Vitalik, Larimer or others that want fame.	ToneVays	1	0	1477766582	792436598210170880	https://twitter.com/ToneVays/status/792436598210170880			
bitcoin 	I agree, but how many Bitcoin companies are running their ICO's out of Russia, China, North Korea, Iran or Syria?	ToneVays	1	1	1477766448	792436035519127552	https://twitter.com/ToneVays/status/792436035519127552			
	if any of the investors have a US Passport in your security, the SEC has jurisdiction	ToneVays	3	0	1477762505	792419496397070337	https://twitter.com/ToneVays/status/792419496397070337			
	yes I understand that and mentioned it to correct Gabe as to why you guys got into this mess	ToneVays	1	0	1477741985	792333433016115200	https://twitter.com/ToneVays/status/792333433016115200			
	I was there, but left, it's too much, i could not keep up	ToneVays	1	0	1477718977	792236930457014272	https://twitter.com/ToneVays/status/792236930457014272			
bitcoin 	I cannot officially endorse the name change :). @ MadBitcoins does all the hard work, i just talk shit...	ToneVays	4	0	1477717392	792230281189130240	https://twitter.com/ToneVays/status/792230281189130240			@
	noworries	BaldingsWorld	0	0	1477753397	792381298199236608	https://twitter.com/BaldingsWorld/status/792381298199236608			
	I listen to U2 on my phone and other than that no one else there. So no worries	BaldingsWorld	0	0	1477751906	792375042101288960	https://twitter.com/BaldingsWorld/status/792375042101288960			
	it wouldn't be 2016 otherwise	BaldingsWorld	1	0	1477749584	792365304076611584	https://twitter.com/BaldingsWorld/status/792365304076611584			
	"We only have ""....with HRC at a press conference"" left in the pool if you'd like that? 2016 right?"	BaldingsWorld	0	0	1477749561	792365207062351873	https://twitter.com/BaldingsWorld/status/792365207062351873			
	It's a gift really	BaldingsWorld	0	0	1477749505	792364972047151104	https://twitter.com/BaldingsWorld/status/792364972047151104			
	I doubt it. Aren't many undecideds and this is unlikely to change people's minds	BaldingsWorld	0	0	1477748862	792362274514018304	https://twitter.com/BaldingsWorld/status/792362274514018304			
	I hear the thinking @ Chris_arnade describing all the time as a way to pat yourself on the back https://twitter.com/Chris_arnade/status/792357386971471872 …	BaldingsWorld	2	0	1477748807	792362046222315520	https://twitter.com/BaldingsWorld/status/792362046222315520			@
	"I have $5 in the pool on ""gratuitous and vulgar sexual advance""https://twitter.com/davidfrum/status/792360105647939584 …"	BaldingsWorld	8	0	1477748438	792360495701299201	https://twitter.com/BaldingsWorld/status/792360495701299201			
	no I meant PMI. EVERYTHING in China is 6.7%!	BaldingsWorld	1	0	1477745477	792348077512204288	https://twitter.com/BaldingsWorld/status/792348077512204288			
	My early estimates put PMI at 6.7%https://twitter.com/ChinaStockRsrch/status/792336945477279749 …	BaldingsWorld	6	1	1477744582	792344323895332865	https://twitter.com/BaldingsWorld/status/792344323895332865			
	This goes for Rs and Ds https://twitter.com/scottlincicome/status/792337075156713473 …	BaldingsWorld	3	1	1477744545	792344168500633600	https://twitter.com/BaldingsWorld/status/792344168500633600			
	well 50m don't care but we can't say we haven't called him out on it the same way HRC being called out	BaldingsWorld	0	0	1477742674	792336322685988864	https://twitter.com/BaldingsWorld/status/792336322685988864			
	Difficult to say but the world has pretty well nailed Trump for his dishonesty	BaldingsWorld	0	0	1477742284	792334687020527617	https://twitter.com/BaldingsWorld/status/792334687020527617			
	You know the epic fight over his Twitter enabled phone that would take place to get him to focus on that for five minutes?	BaldingsWorld	1	0	1477737766	792315734412054528	https://twitter.com/BaldingsWorld/status/792315734412054528			
	How to tell if you're a Dem/Rep: Comey did the right/wrong thing in July, but is now playing politics/a principled leader.	BaldingsWorld	4	6	1477737629	792315161889472512	https://twitter.com/BaldingsWorld/status/792315161889472512			
	OK that agreed	BaldingsWorld	0	0	1477736777	792311588942258177	https://twitter.com/BaldingsWorld/status/792311588942258177			
	Actually, no I don't foresee any Yukos style takedown of DJT	BaldingsWorld	1	1	1477736747	792311462224011264	https://twitter.com/BaldingsWorld/status/792311462224011264			
	tough to say as I plan on staying drunk roughly November 7-9	BaldingsWorld	1	1	1477735375	792305707894714368	https://twitter.com/BaldingsWorld/status/792305707894714368			
	HRC inner circle and daughter: we have conflicts of interest and act like we're above the law. HRC supporters: what conflicts of interests?	BaldingsWorld	9	12	1477735243	792305151822352385	https://twitter.com/BaldingsWorld/status/792305151822352385			
	that means you believe she spent more time emailing about personal matters than public matters.	BaldingsWorld	0	0	1477734014	792299999132385280	https://twitter.com/BaldingsWorld/status/792299999132385280			
	he's got enough other legal issues to deal with	BaldingsWorld	0	0	1477733715	792298743668183040	https://twitter.com/BaldingsWorld/status/792298743668183040			
	delete your own emails? 35,000 pages of emails about Chelsea's wedding? Really?	BaldingsWorld	0	0	1477733370	792297298327810052	https://twitter.com/BaldingsWorld/status/792297298327810052			
	there's already so much evidence of that	BaldingsWorld	0	0	1477733341	792297175736659968	https://twitter.com/BaldingsWorld/status/792297175736659968			
	because the other guy is even more corrupt	BaldingsWorld	1	0	1477732752	792294703399968768	https://twitter.com/BaldingsWorld/status/792294703399968768			
	LOL.....so freaking truehttps://twitter.com/hale_razor/status/792144290172461057 …	BaldingsWorld	5	4	1477732650	792294275429994496	https://twitter.com/BaldingsWorld/status/792294275429994496			
	one might even apply this to Cubs fans	BaldingsWorld	0	0	1477718077	792233154526392320	https://twitter.com/BaldingsWorld/status/792233154526392320			
	The mental gymnastics required to continue believing Chinese GDP is just staggering. Banana in the tailpipe and cotton in the air sensor https://twitter.com/Anon0Mouse/status/792208415162527744 …	BaldingsWorld	9	4	1477717705	792231592122982400	https://twitter.com/BaldingsWorld/status/792231592122982400			
	Trump supporters actually making subtle comparisons to Christ. The never ending struggle against stupidity is all too realpic.twitter.com/6J9l5paxo6	BaldingsWorld	15	7	1477717530	792230857599614976	https://twitter.com/BaldingsWorld/status/792230857599614976			
	Capital flows with Chinese characteristicshttps://twitter.com/io8_8ov/status/792221852827422720 …	BaldingsWorld	7	1	1477717347	792230093066149888	https://twitter.com/BaldingsWorld/status/792230093066149888			
	Really nails ithttps://twitter.com/WorthWray/status/792209857495437312 …	BaldingsWorld	1	2	1477712780	792210934689255424	https://twitter.com/BaldingsWorld/status/792210934689255424			
	"Have to admit this erotic thriller movie ""Election: 2016"" is neither erotic nor thrilling. Would really love to watch something else"	BaldingsWorld	3	0	1477702593	792168209717669888	https://twitter.com/BaldingsWorld/status/792168209717669888			
	"""I'll be baaack. For multiple 5 year terms after the traditional hand over of power""https://twitter.com/siddharma/status/791892638517473281 …"	BaldingsWorld	4	2	1477702482	792167744682598400	https://twitter.com/BaldingsWorld/status/792167744682598400			
	but never mind, emotion trumps reason these days, on both right and left.	prchovanec	1	0	1477776633	792478754807410689	https://twitter.com/prchovanec/status/792478754807410689			
	you're falling prey to connotations and ignoring both origin and denotation.	prchovanec	0	0	1477776606	792478640286162951	https://twitter.com/prchovanec/status/792478640286162951			
	it's how nations are destroyed.	prchovanec	2	0	1477776535	792478345648807936	https://twitter.com/prchovanec/status/792478345648807936			
	because he played down to it instead of redirecting it to something genuine and constructive. It's called demagoguery.	prchovanec	2	0	1477776500	792478197447286784	https://twitter.com/prchovanec/status/792478197447286784			
	did you see any flush toilets along the way?	prchovanec	0	0	1477775915	792475741866909696	https://twitter.com/prchovanec/status/792475741866909696			
	were there bridges or just ferries?	prchovanec	0	0	1477775751	792475055599026177	https://twitter.com/prchovanec/status/792475055599026177			
	was there actual pavement?	prchovanec	0	0	1477775630	792474547782115329	https://twitter.com/prchovanec/status/792474547782115329			
	hardly ideal, but really, Third World? You need to get out and about more.	prchovanec	0	1	1477775514	792474063960678400	https://twitter.com/prchovanec/status/792474063960678400			
	there is nothing inherently offensive about it, but for the associations that have developed.	prchovanec	0	0	1477775352	792473380821823488	https://twitter.com/prchovanec/status/792473380821823488			
	only in the sense that any outdated phrase that has developed negative connotations becomes offensive.	prchovanec	1	0	1477775316	792473231252914181	https://twitter.com/prchovanec/status/792473231252914181			
	having spoken with several of those team members: they try and he doesn't listen.	prchovanec	2	0	1477775240	792472914130075648	https://twitter.com/prchovanec/status/792472914130075648			
	yes, people do.	prchovanec	1	1	1477775197	792472732852191232	https://twitter.com/prchovanec/status/792472732852191232			
	not a truth man, if you ask me.	prchovanec	0	0	1477775184	792472676312940544	https://twitter.com/prchovanec/status/792472676312940544			
	I'm not Byrd admirer but this is ridiculous false equivalency and WHAT is your point anyway? Klan is ok?	prchovanec	0	0	1477774351	792469182797475840	https://twitter.com/prchovanec/status/792469182797475840			
	Potentially credible statement to anyone who has never visited an actual Third World country.https://twitter.com/sopandeb/status/792453182848765952 …	prchovanec	48	54	1477774143	792468313154740228	https://twitter.com/prchovanec/status/792468313154740228			
	imagine if I confused a record growth rate in new home sales with a record level of sales?	prchovanec	5	0	1477773557	792465853073788930	https://twitter.com/prchovanec/status/792465853073788930			
	if I quoted economic figures as sloppily as Trump does crime figures, I wouldn't have a job long:https://www.google.com/amp/mobile.nytimes.com/2016/09/27/us/murder-crime-fbi.amp.html …	prchovanec	2	0	1477773471	792465491013042177	https://twitter.com/prchovanec/status/792465491013042177			
	Someone please shut the Overton Window, it's getting drafty in here.https://twitter.com/kylegriffin1/status/791699714152488965 …	prchovanec	5	1	1477772287	792460525196218368	https://twitter.com/prchovanec/status/792460525196218368			
	Jesus face palm, for your Twitter files. Could come in useful.https://twitter.com/rxpancakes/status/792434581936799745 …	prchovanec	6	0	1477767301	792439613461782528	https://twitter.com/prchovanec/status/792439613461782528			
	no, I can hear you loud and clear :)	prchovanec	1	0	1477767023	792438448850427908	https://twitter.com/prchovanec/status/792438448850427908			
	You, sir, are winning at Twitter.https://twitter.com/danieljhannan/status/792437036972175361 …	prchovanec	15	6	1477766938	792438093735424001	https://twitter.com/prchovanec/status/792438093735424001			
	My 7-year old son just asked me what this creepy killer clown stuff is all about.	prchovanec	1	0	1477766652	792436892843278337	https://twitter.com/prchovanec/status/792436892843278337			
	"My 7-year old son's reaction to his birthday present: ""I always wanted a stretch limo, and now I have one.""pic.twitter.com/SiNCcSL1Af"	prchovanec	20	4	1477766128	792434693572616192	https://twitter.com/prchovanec/status/792434693572616192			
	"My 7-year old son just tried rainbow sherbet, tells us ""It takes like rainbows!"""	prchovanec	9	0	1477765134	792430526812610560	https://twitter.com/prchovanec/status/792430526812610560			
	"My wife just congratulated my son on his birthday: ""You're 7 years old!"" Him: ""Yes, seven earth orbits."""	prchovanec	16	1	1477764847	792429321784819712	https://twitter.com/prchovanec/status/792429321784819712			
	anyway, I see you're RTing Adams and Cernovich, so you're really just trolling me.	prchovanec	1	0	1477756353	792393693332463616	https://twitter.com/prchovanec/status/792393693332463616			
	No, I'm alright. Disappointed, but alright. The conflicts are all external, not internal.	prchovanec	1	0	1477756256	792393288624013312	https://twitter.com/prchovanec/status/792393288624013312			
	well, he's not my nominee, he will never be my nominee.	prchovanec	1	0	1477756160	792392884741865472	https://twitter.com/prchovanec/status/792392884741865472			
	well, I'm not voting for the Democrat either. I couldn't possibly, given my views.	prchovanec	1	0	1477756057	792392455199027200	https://twitter.com/prchovanec/status/792392455199027200			
	anyway, since when has being in a minority ever bothered me before, if I felt I had good reason?	prchovanec	1	0	1477756001	792392220657737729	https://twitter.com/prchovanec/status/792392220657737729			
	I'd like to see the Venn Diagram on that. I think the coincidence is low.	prchovanec	1	0	1477755864	792391642737209345	https://twitter.com/prchovanec/status/792391642737209345			
	Don't blink.https://twitter.com/ValaAfshar/status/792383386652401664 …	prchovanec	5	8	1477755772	792391260065652736	https://twitter.com/prchovanec/status/792391260065652736			
	unfortunately, Trump doesn't need to be on coke to be this way, he just is.	prchovanec	0	0	1477755695	792390933702643712	https://twitter.com/prchovanec/status/792390933702643712			
	okay, so he jumped two sharks.	prchovanec	0	0	1477755655	792390766211530752	https://twitter.com/prchovanec/status/792390766211530752			
	Shark jumped.https://twitter.com/Mediaite/status/792388286945890304 …	prchovanec	6	4	1477755521	792390207253442560	https://twitter.com/prchovanec/status/792390207253442560			
	2016, please go away.https://twitter.com/TIME/status/789488971957043200 …	prchovanec	37	14	1477755375	792389590980190209	https://twitter.com/prchovanec/status/792389590980190209			
	Umm ...https://twitter.com/PostWorldNews/status/792291124522156033 …	prchovanec	1	0	1477755334	792389422255857665	https://twitter.com/prchovanec/status/792389422255857665			
	I would have voted for Goldwater, no problem.	prchovanec	0	1	1477755094	792388413429342208	https://twitter.com/prchovanec/status/792388413429342208			
	This couldn't be farther from the truth. If I could, in good conscience, support the Republican nominee, I would do so gladly. I cannot.	prchovanec	14	3	1477755071	792388319644647425	https://twitter.com/prchovanec/status/792388319644647425			
	I'm guessing they think # NeverTrump Republicans are motivated merely by pique, not conviction, so we just have to get over ourselves.	prchovanec	21	4	1477754993	792387991700381700	https://twitter.com/prchovanec/status/792387991700381700		#	
	I get a kick out of fellow Republicans who think that, after all this, I will somehow succumb to peer pressure in the final days.	prchovanec	46	10	1477754752	792386980856356865	https://twitter.com/prchovanec/status/792386980856356865			
	I will of course be voting.	prchovanec	0	0	1477754685	792386700848881664	https://twitter.com/prchovanec/status/792386700848881664			
	"If Ted could talk, he'd say ""Get me the hell out of here!""https://twitter.com/globaltimesnews/status/792345168456224768 …"	prchovanec	3	1	1477744944	792345841914810368	https://twitter.com/prchovanec/status/792345841914810368			
	I stand by the prediction.	prchovanec	1	0	1477744607	792344430141382656	https://twitter.com/prchovanec/status/792344430141382656			
	Better yet, go as anti-matter. Show up for a brief moment, create a giant altercation, then disappear.https://twitter.com/astrokatie/status/792338802517893120 …	prchovanec	2	2	1477744583	792344326395326464	https://twitter.com/prchovanec/status/792344326395326464			
	Sabato's map is nearly identical to the one I shared a few days ago. Reading the same tea leaves.https://twitter.com/kylegriffin1/status/792209964349722624 …	prchovanec	2	2	1477743991	792341845812580352	https://twitter.com/prchovanec/status/792341845812580352			
	what if I think he's sort of bumbling through this whole thing?	prchovanec	3	0	1477743548	792339985781428224	https://twitter.com/prchovanec/status/792339985781428224			
	By that same logic, any non-Hillary vote is a vote for Trump. So be happy, and leave us be.https://twitter.com/GalloVOA/status/791405564815212544 …	prchovanec	20	5	1477720841	792244746685153280	https://twitter.com/prchovanec/status/792244746685153280			
	That time nobody wanted to sit next to Weiner at the Democratic Convention.pic.twitter.com/SdMcCdtazt	prchovanec	12	10	1477720317	792242547762552833	https://twitter.com/prchovanec/status/792242547762552833			
	Honestly, I don't think I'm surprised by anything that's happened in October so far.	prchovanec	9	0	1477720002	792241228771393536	https://twitter.com/prchovanec/status/792241228771393536			
	The weirdness is increasing at an exponential rate.https://twitter.com/RT_America/status/792219577853804544 …	prchovanec	5	1	1477719657	792239779693883392	https://twitter.com/prchovanec/status/792239779693883392			
	Boeing identifies site for new plant in China http://on.wsj.com/2eYQIS5	prchovanec	1	3	1477704756	792177280218955776	https://twitter.com/prchovanec/status/792177280218955776			
	well, it looks like you think he was making a funny point.	prchovanec	0	0	1477704620	792176708958945280	https://twitter.com/prchovanec/status/792176708958945280			
	dude, you're retweeting David Duke in your timeline. Get a grip.	prchovanec	1	0	1477704501	792176210491170816	https://twitter.com/prchovanec/status/792176210491170816			
	Persuasion at work.https://twitter.com/f0ster/status/792173941670285312 …	prchovanec	4	0	1477704339	792175531689123840	https://twitter.com/prchovanec/status/792175531689123840			
	"Take us to you ""core"" leader http://www.nytimes.com/2016/10/28/world/asia/xi-jinping-china.html …"	prchovanec	2	3	1477704289	792175321835532288	https://twitter.com/prchovanec/status/792175321835532288			
	US and China plan join military disaster relief exercise in Yunnanhttp://www.cnn.com/2016/10/28/politics/us-china-joint-military-drills/ …	prchovanec	4	4	1477704113	792174583197687808	https://twitter.com/prchovanec/status/792174583197687808			
	Yes. Yes he is.https://twitter.com/RawStory/status/792161811852296192 …	prchovanec	22	6	1477703831	792173402278813696	https://twitter.com/prchovanec/status/792173402278813696			
	I'll consider myself fired.https://twitter.com/realDonaldTrump/status/792031499075944448 …	prchovanec	5	4	1477703599	792172429963567105	https://twitter.com/prchovanec/status/792172429963567105			
	cynics are never right, even when they're right.	prchovanec	0	0	1477698325	792150309632106496	https://twitter.com/prchovanec/status/792150309632106496			
	do I get to decide the outcome?	prchovanec	1	0	1477698204	792149799290241025	https://twitter.com/prchovanec/status/792149799290241025			
	This election is like the Hamburglar vs Oscar the Grouch.	prchovanec	7	1	1477698204	792149799248261120	https://twitter.com/prchovanec/status/792149799248261120			
	No need to occupy if you've got a puppet.https://twitter.com/theresaafallon/status/792104308271673346 …	prchovanec	4	0	1477698201	792149788884144129	https://twitter.com/prchovanec/status/792149788884144129			
	There is a world of difference between an informed critic and a carping cynic. Discuss.	prchovanec	2	1	1477696527	792142766398697473	https://twitter.com/prchovanec/status/792142766398697473			
	they'd learn a lot and become informed critics, rather than carping cynics.	prchovanec	0	0	1477696445	792142424499978240	https://twitter.com/prchovanec/status/792142424499978240			
	I'll see you and raise you: people need to not just vote, but volunteer for campaigns and get involved any way they can.	prchovanec	0	0	1477696408	792142268295766017	https://twitter.com/prchovanec/status/792142268295766017			
	Yes because it takes that long / is almost time to negotiate new agreement as the this is obsoletehttps://twitter.com/breakingmoney/status/792405240142233600 …	Sunchartist	0	0	1477759234	792405780838309888	https://twitter.com/Sunchartist/status/792405780838309888			
	A Very Happy Diwali. May your home be full of sparkle & prosperity always	Sunchartist	3	0	1477756056	792392447359750144	https://twitter.com/Sunchartist/status/792392447359750144			
	Someone had wind of it as it appears their were long queues day before to buy HK insurance with Union Pay	Sunchartist	2	0	1477755824	792391477787631616	https://twitter.com/Sunchartist/status/792391477787631616			
bitcoin 	No coincidence that Bitcoin up since restrictions came in. Overseas Insurance has been a ruse to wire transfer money out of the countryhttps://twitter.com/XHNews/status/792382610630639616 …	Sunchartist	2	2	1477755551	792390330242899968	https://twitter.com/Sunchartist/status/792390330242899968			
	NASDAQ % above MApic.twitter.com/MHVU3TmtIe	Sunchartist	2	0	1477753296	792380873165316098	https://twitter.com/Sunchartist/status/792380873165316098			
	NASDAQ A/Dpic.twitter.com/vZhyz05lFT	Sunchartist	1	0	1477753251	792380686229315584	https://twitter.com/Sunchartist/status/792380686229315584			
	NYSE % of Stocks above MApic.twitter.com/29blF3U8vL	Sunchartist	1	0	1477753196	792380451516100609	https://twitter.com/Sunchartist/status/792380451516100609			
	NYSE Common Stock Only A/D rolling overpic.twitter.com/YfeRZsw9us	Sunchartist	1	0	1477753129	792380173697941509	https://twitter.com/Sunchartist/status/792380173697941509			
	The false breakout to new high / Island reversal does not helphttps://twitter.com/jessefelder/status/792373908741640192 …	Sunchartist	1	1	1477752485	792377472511647744	https://twitter.com/Sunchartist/status/792377472511647744			
	What Happens If Hillary Clinton is Indicted? | Law News Obama hold on to power until DNC ready with new Candidate http://lawnewz.com/high-profile/heres-what-could-happen-if-hillary-clinton-is-indicted-or-steps-down/ …	Sunchartist	1	1	1477737359	792314028261380097	https://twitter.com/Sunchartist/status/792314028261380097			
	Bank Index $ BKX outperforming $ SPX as US 2-10 Curve steepens but we also see a possibility of a rising wedge pattenpic.twitter.com/PfZupOKzn1	Sunchartist	3	1	1477735041	792304305474646016	https://twitter.com/Sunchartist/status/792304305474646016			
	What are the odds FBI clears Hillary Clinton before Monday market open?	Sunchartist	0	0	1477734793	792303264633004033	https://twitter.com/Sunchartist/status/792303264633004033			
	S&P 600 Small Cap Index Double Top breakdown $ SML $ SPXpic.twitter.com/kxGawr2eo6	Sunchartist	2	1	1477733764	792298950141161473	https://twitter.com/Sunchartist/status/792298950141161473			
	Big shift if truehttps://twitter.com/business/status/792209497443934208 …	Sunchartist	1	0	1477717686	792231511860908033	https://twitter.com/Sunchartist/status/792231511860908033			
	Hillary's investigation news & the move from 105.50 to 104.50 moved the 25 delays RR down a bit but not meaningfullypic.twitter.com/mAkGPRFb07	Sunchartist	1	0	1477712068	792207948407721984	https://twitter.com/Sunchartist/status/792207948407721984			
	In this 20 year chart i still see Wave A completed. previous Wave 4 ended at 675 or so. $ GOLDpic.twitter.com/9zSKiwOsBL	Sunchartist	4	2	1477710949	792203256285892609	https://twitter.com/Sunchartist/status/792203256285892609			
	CBOE Equity Put/Call ratio jumps but averages are zzzzzpic.twitter.com/fGOA7sbT2p	Sunchartist	1	0	1477710380	792200870385504256	https://twitter.com/Sunchartist/status/792200870385504256			
	NYSE BioTech Index breaks up trend from 2009 & bear flag (weekly) $ BTK $ NBI $ IBBpic.twitter.com/aAnPevVLUz	Sunchartist	2	1	1477707162	792187373949812736	https://twitter.com/Sunchartist/status/792187373949812736			
